Nb58 Bi80 Se236
1.0
  15.0973550213515413    0.0000000000000000    0.0000000000000009
   6.7540798776819626   19.9561103367619062    0.0000000000000013
   0.0000000000000000    0.0000000000000000   44.4624158930297497
Nb Bi Se
58 80 236
direct
   0.2256955916074638    0.7179622618806442    0.3447480443666843 Nb
   0.3636266260902222    0.8214105377427131    0.3447480443666843 Nb
   0.1912128329867743    0.4421001929151268    0.3447480443666843 Nb
   0.3291438674695328    0.5455484687771959    0.3447480443666843 Nb
   0.4670749019522914    0.6489967446392648    0.3447480443666843 Nb
   0.6050059364350504    0.7524450205013338    0.3447480443666843 Nb
   0.7429369709178084    0.8558932963634029    0.3447480443666843 Nb
   0.1567300743660845    0.1662381239496096    0.3447480443666843 Nb
   0.2946611088488433    0.2696863998116786    0.3447480443666843 Nb
   0.4325921433316016    0.3731346756737477    0.3447480443666843 Nb
   0.5705231778143605    0.4765829515358166    0.3447480443666843 Nb
   0.7084542122971192    0.5800312273978856    0.3447480443666843 Nb
   0.8463852467798780    0.6834795032599542    0.3447480443666843 Nb
   0.9843162812626365    0.7869277791220234    0.3447480443666843 Nb
   0.1222473157453948    0.8903760549840923    0.3447480443666843 Nb
   0.2601783502281534    0.9938243308461614    0.3447480443666843 Nb
   0.3981093847109122    0.0972726067082303    0.3447480443666843 Nb
   0.5360404191936707    0.2007208825702994    0.3447480443666843 Nb
   0.6739714536764294    0.3041691584323682    0.3447480443666843 Nb
   0.8119024881591882    0.4076174342944373    0.3447480443666843 Nb
   0.9498335226419464    0.5110657101565063    0.3447480443666843 Nb
   0.0877645571247053    0.6145139860185751    0.3447480443666843 Nb
   0.5015576605729812    0.9248588136047818    0.3447480443666843 Nb
   0.6394886950557396    0.0283070894668510    0.3447480443666843 Nb
   0.7774197295384984    0.1317553653289200    0.3447480443666843 Nb
   0.9153507640212570    0.2352036411909890    0.3447480443666843 Nb
   0.0532817985040154    0.3386519170530580    0.3447480443666843 Nb
   0.8808680054005672    0.9593415722254717    0.3447480443666843 Nb
   0.0187990398833259    0.0627898480875407    0.3447480443666843 Nb
   0.2262955162936754    0.7175990675587756    0.2065134900768984 Nb
   0.3642265507764342    0.8210473434208447    0.2065134900768984 Nb
   0.1918127576729859    0.4417369985932584    0.2065134900768984 Nb
   0.3297437921557445    0.5451852744553274    0.2065134900768984 Nb
   0.4676748266385031    0.6486335503173962    0.2065134900768984 Nb
   0.6056058611212618    0.7520818261794653    0.2065134900768984 Nb
   0.7435368956040206    0.8555301020415343    0.2065134900768984 Nb
   0.1573299990522962    0.1658749296277412    0.2065134900768984 Nb
   0.2952610335350548    0.2693232054898101    0.2065134900768984 Nb
   0.4331920680178135    0.3727714813518792    0.2065134900768984 Nb
   0.5711231025005723    0.4762197572139481    0.2065134900768984 Nb
   0.7090541369833305    0.5796680330760171    0.2065134900768984 Nb
   0.8469851714660898    0.6831163089380861    0.2065134900768984 Nb
   0.9849162059488480    0.7865645848001548    0.2065134900768984 Nb
   0.1228472404316065    0.8900128606622238    0.2065134900768984 Nb
   0.2607782749143652    0.9934611365242929    0.2065134900768984 Nb
   0.3987093093971237    0.0969094123863619    0.2065134900768984 Nb
   0.5366403438798824    0.2003576882484309    0.2065134900768984 Nb
   0.6745713783626412    0.3038059641104999    0.2065134900768984 Nb
   0.8125024128453999    0.4072542399725689    0.2065134900768984 Nb
   0.9504334473281582    0.5107025158346377    0.2065134900768984 Nb
   0.0883644818109169    0.6141507916967066    0.2065134900768984 Nb
   0.5021575852591929    0.9244956192829136    0.2065134900768984 Nb
   0.6400886197419515    0.0279438951449826    0.2065134900768984 Nb
   0.7780196542247101    0.1313921710070515    0.2065134900768984 Nb
   0.9159506887074684    0.2348404468691205    0.2065134900768984 Nb
   0.0538817231902272    0.3382887227311895    0.2065134900768984 Nb
   0.8814679300867793    0.9589783779036033    0.2065134900768984 Nb
   0.0193989645695375    0.0624266537656722    0.2065134900768984 Nb
   0.7849339602742598    0.7439062416332778    0.7944001694220465 Bi
   0.2849339602742599    0.7439062416332778    0.7944001694220465 Bi
   0.5849339602742601    0.6439062416332779    0.7944001694220465 Bi
   0.8849339602742601    0.5439062416332778    0.7944001694220465 Bi
   0.0849339602742598    0.6439062416332776    0.7944001694220465 Bi
   0.3849339602742596    0.5439062416332778    0.7944001694220465 Bi
   0.6849339602742598    0.4439062416332780    0.7944001694220465 Bi
   0.1849339602742597    0.4439062416332777    0.7944001694220465 Bi
   0.4849339602742598    0.3439062416332778    0.7944001694220465 Bi
   0.7849339602742599    0.2439062416332779    0.7944001694220465 Bi
   0.9849339602742596    0.3439062416332779    0.7944001694220465 Bi
   0.2849339602742598    0.2439062416332779    0.7944001694220465 Bi
   0.5849339602742599    0.1439062416332779    0.7944001694220465 Bi
   0.8849339602742601    0.0439062416332779    0.7944001694220465 Bi
   0.0849339602742597    0.1439062416332778    0.7944001694220465 Bi
   0.3849339602742597    0.0439062416332779    0.7944001694220465 Bi
   0.6849339602742598    0.9439062416332779    0.7944001694220465 Bi
   0.1849339602742597    0.9439062416332780    0.7944001694220465 Bi
   0.4849339602742599    0.8439062416332779    0.7944001694220465 Bi
   0.9849339602742596    0.8439062416332779    0.7944001694220465 Bi
   0.6194338797336538    0.7451079523568225    0.7047369577364245 Bi
   0.1194338797336534    0.7451079523568225    0.7047369577364245 Bi
   0.4194338797336538    0.6451079523568226    0.7047369577364245 Bi
   0.7194338797336541    0.5451079523568224    0.7047369577364245 Bi
   0.9194338797336535    0.6451079523568224    0.7047369577364245 Bi
   0.2194338797336535    0.5451079523568224    0.7047369577364245 Bi
   0.5194338797336537    0.4451079523568225    0.7047369577364245 Bi
   0.0194338797336535    0.4451079523568225    0.7047369577364245 Bi
   0.3194338797336536    0.3451079523568226    0.7047369577364245 Bi
   0.6194338797336538    0.2451079523568225    0.7047369577364245 Bi
   0.8194338797336537    0.3451079523568225    0.7047369577364245 Bi
   0.1194338797336536    0.2451079523568226    0.7047369577364245 Bi
   0.4194338797336539    0.1451079523568226    0.7047369577364245 Bi
   0.7194338797336539    0.0451079523568226    0.7047369577364245 Bi
   0.9194338797336535    0.1451079523568226    0.7047369577364245 Bi
   0.2194338797336536    0.0451079523568226    0.7047369577364245 Bi
   0.5194338797336536    0.9451079523568225    0.7047369577364245 Bi
   0.0194338797336536    0.9451079523568225    0.7047369577364245 Bi
   0.3194338797336538    0.8451079523568225    0.7047369577364245 Bi
   0.8194338797336538    0.8451079523568223    0.7047369577364245 Bi
   0.6166562217409459    0.7482567644232637    0.5688586317166681 Bi
   0.1166562217409459    0.7482567644232637    0.5688586317166681 Bi
   0.4166562217409462    0.6482567644232642    0.5688586317166681 Bi
   0.7166562217409465    0.5482567644232640    0.5688586317166681 Bi
   0.9166562217409461    0.6482567644232639    0.5688586317166682 Bi
   0.2166562217409457    0.5482567644232639    0.5688586317166681 Bi
   0.5166562217409457    0.4482567644232640    0.5688586317166681 Bi
   0.0166562217409457    0.4482567644232640    0.5688586317166681 Bi
   0.3166562217409457    0.3482567644232639    0.5688586317166681 Bi
   0.6166562217409459    0.2482567644232639    0.5688586317166681 Bi
   0.8166562217409458    0.3482567644232640    0.5688586317166681 Bi
   0.1166562217409457    0.2482567644232639    0.5688586317166681 Bi
   0.4166562217409459    0.1482567644232639    0.5688586317166681 Bi
   0.7166562217409459    0.0482567644232639    0.5688586317166681 Bi
   0.9166562217409459    0.1482567644232639    0.5688586317166681 Bi
   0.2166562217409458    0.0482567644232639    0.5688586317166681 Bi
   0.5166562217409457    0.9482567644232639    0.5688586317166681 Bi
   0.0166562217409457    0.9482567644232640    0.5688586317166681 Bi
   0.3166562217409458    0.8482567644232639    0.5688586317166681 Bi
   0.8166562217409460    0.8482567644232639    0.5688586317166682 Bi
   0.9514365812409541    0.7483358514298979    0.4795310425214356 Bi
   0.4514365812409545    0.7483358514298980    0.4795310425214355 Bi
   0.7514365812409542    0.6483358514298981    0.4795310425214355 Bi
   0.0514365812409545    0.5483358514298979    0.4795310425214356 Bi
   0.2514365812409541    0.6483358514298979    0.4795310425214356 Bi
   0.5514365812409541    0.5483358514298980    0.4795310425214356 Bi
   0.8514365812409543    0.4483358514298981    0.4795310425214355 Bi
   0.3514365812409542    0.4483358514298980    0.4795310425214356 Bi
   0.6514365812409542    0.3483358514298981    0.4795310425214356 Bi
   0.9514365812409543    0.2483358514298981    0.4795310425214356 Bi
   0.1514365812409541    0.3483358514298981    0.4795310425214356 Bi
   0.4514365812409543    0.2483358514298981    0.4795310425214356 Bi
   0.7514365812409541    0.1483358514298981    0.4795310425214356 Bi
   0.0514365812409544    0.0483358514298981    0.4795310425214356 Bi
   0.2514365812409541    0.1483358514298981    0.4795310425214356 Bi
   0.5514365812409542    0.0483358514298981    0.4795310425214356 Bi
   0.8514365812409542    0.9483358514298981    0.4795310425214356 Bi
   0.3514365812409542    0.9483358514298982    0.4795310425214356 Bi
   0.6514365812409539    0.8483358514298981    0.4795310425214356 Bi
   0.1514365812409541    0.8483358514298981    0.4795310425214355 Bi
   0.0998614901776860    0.7060774946667842    0.1686817922364798 Se
   0.2377925246604445    0.8095257705288533    0.1686817922364798 Se
   0.0653787315569964    0.4302154257012669    0.1686817922364798 Se
   0.2033097660397551    0.5336637015633359    0.1686817922364798 Se
   0.3412408005225136    0.6371119774254047    0.1686817922364798 Se
   0.4791718350052721    0.7405602532874739    0.1686817922364798 Se
   0.6171028694880305    0.8440085291495431    0.1686817922364798 Se
   0.0308959729363068    0.1543533567357496    0.1686817922364798 Se
   0.1688270074190654    0.2578016325978187    0.1686817922364798 Se
   0.3067580419018240    0.3612499084598876    0.1686817922364798 Se
   0.4446890763845826    0.4646981843219565    0.1686817922364798 Se
   0.5826201108673411    0.5681464601840256    0.1686817922364798 Se
   0.7205511453501001    0.6715947360460944    0.1686817922364798 Se
   0.8584821798328586    0.7750430119081635    0.1686817922364798 Se
   0.9964132143156170    0.8784912877702323    0.1686817922364798 Se
   0.1343442487983757    0.9819395636323014    0.1686817922364798 Se
   0.2722752832811345    0.0853878394943704    0.1686817922364798 Se
   0.4102063177638929    0.1888361153564394    0.1686817922364798 Se
   0.5481373522466517    0.2922843912185084    0.1686817922364798 Se
   0.6860683867294101    0.3957326670805774    0.1686817922364798 Se
   0.8239994212121690    0.4991809429426463    0.1686817922364798 Se
   0.9619304556949274    0.6026292188047152    0.1686817922364798 Se
   0.3757235591432034    0.9129740463909219    0.1686817922364798 Se
   0.5136545936259620    0.0164223222529911    0.1686817922364798 Se
   0.6515856281087207    0.1198705981150600    0.1686817922364798 Se
   0.7895166625914792    0.2233188739771290    0.1686817922364798 Se
   0.9274476970742377    0.3267671498391980    0.1686817922364798 Se
   0.7550339039707895    0.9474568050116118    0.1686817922364798 Se
   0.8929649384535481    0.0509050808736807    0.1686817922364798 Se
   0.1107490366769472    0.7984095249496437    0.3069115334886655 Se
   0.2486800711597058    0.9018578008117127    0.3069115334886654 Se
   0.0762662780562576    0.5225474559841266    0.3069115334886655 Se
   0.2141973125390161    0.6259957318461955    0.3069115334886655 Se
   0.3521283470217748    0.7294440077082647    0.3069115334886654 Se
   0.4900593815045330    0.8328922835703335    0.3069115334886654 Se
   0.6279904159872920    0.9363405594324026    0.3069115334886655 Se
   0.0417835194355679    0.2466853870186093    0.3069115334886655 Se
   0.1797145539183266    0.3501336628806782    0.3069115334886655 Se
   0.3176455884010851    0.4535819387427473    0.3069115334886655 Se
   0.4555766228838438    0.5570302146048162    0.3069115334886655 Se
   0.5935076573666022    0.6604784904668853    0.3069115334886654 Se
   0.7314386918493608    0.7639267663289543    0.3069115334886654 Se
   0.8693697263321196    0.8673750421910231    0.3069115334886654 Se
   0.0073007608148782    0.9708233180530922    0.3069115334886655 Se
   0.1452317952976368    0.0742715939151611    0.3069115334886655 Se
   0.2831628297803955    0.1777198697772301    0.3069115334886655 Se
   0.4210938642631541    0.2811681456392991    0.3069115334886655 Se
   0.5590248987459128    0.3846164215013679    0.3069115334886655 Se
   0.6969559332286709    0.4880646973634370    0.3069115334886654 Se
   0.8348869677114297    0.5915129732255060    0.3069115334886654 Se
   0.9728180021941883    0.6949612490875750    0.3069115334886655 Se
   0.3866111056424645    0.0053060766737818    0.3069115334886655 Se
   0.5245421401252232    0.1087543525358508    0.3069115334886655 Se
   0.6624731746079816    0.2122026283979197    0.3069115334886655 Se
   0.8004042090907402    0.3156509042599886    0.3069115334886655 Se
   0.9383352435734987    0.4190991801220577    0.3069115334886654 Se
   0.7659214504700507    0.0397888352944714    0.3069115334886655 Se
   0.9038524849528091    0.1432371111565404    0.3069115334886655 Se
   0.0998144468716501    0.7061281729198633    0.2443510399711945 Se
   0.2377454813544086    0.8095764487819324    0.2443510399711945 Se
   0.0653316882509604    0.4302661039543461    0.2443510399711945 Se
   0.2032627227337189    0.5337143798164150    0.2443510399711945 Se
   0.3411937572164776    0.6371626556784842    0.2443510399711945 Se
   0.4791247916992362    0.7406109315405531    0.2443510399711945 Se
   0.6170558261819949    0.8440592074026220    0.2443510399711945 Se
   0.0308489296302707    0.1544040349888289    0.2443510399711945 Se
   0.1687799641130293    0.2578523108508978    0.2443510399711945 Se
   0.3067109985957878    0.3613005867129668    0.2443510399711945 Se
   0.4446420330785467    0.4647488625750357    0.2443510399711945 Se
   0.5825730675613052    0.5681971384371047    0.2443510399711945 Se
   0.7205041020440643    0.6716454142991737    0.2443510399711945 Se
   0.8584351365268226    0.7750936901612425    0.2443510399711945 Se
   0.9963661710095810    0.8785419660233116    0.2443510399711945 Se
   0.1342972054923397    0.9819902418853806    0.2443510399711945 Se
   0.2722282399750983    0.0854385177474496    0.2443510399711945 Se
   0.4101592744578570    0.1888867936095186    0.2443510399711945 Se
   0.5480903089406157    0.2923350694715875    0.2443510399711945 Se
   0.6860213434233742    0.3957833453336565    0.2443510399711945 Se
   0.8239523779061333    0.4992316211957255    0.2443510399711945 Se
   0.9618834123888913    0.6026798970577943    0.2443510399711945 Se
   0.3756765158371673    0.9130247246440012    0.2443510399711945 Se
   0.5136075503199260    0.0164730005060703    0.2443510399711945 Se
   0.6515385848026847    0.1199212763681393    0.2443510399711945 Se
   0.7894696192854432    0.2233695522302082    0.2443510399711945 Se
   0.9274006537682022    0.3268178280922772    0.2443510399711945 Se
   0.7549868606647536    0.9475074832646910    0.2443510399711945 Se
   0.8929178951475121    0.0509557591267599    0.2443510399711945 Se
   0.1107132428028755    0.7984616953410776    0.3825808312104175 Se
   0.2486442772856341    0.9019099712031466    0.3825808312104175 Se
   0.0762304841821858    0.5225996263755602    0.3825808312104175 Se
   0.2141615186649443    0.6260479022376295    0.3825808312104175 Se
   0.3520925531477033    0.7294961780996982    0.3825808312104175 Se
   0.4900235876304619    0.8329444539617672    0.3825808312104175 Se
   0.6279546221132204    0.9363927298238364    0.3825808312104175 Se
   0.0417477255614962    0.2467375574100431    0.3825808312104175 Se
   0.1796787600442548    0.3501858332721121    0.3825808312104175 Se
   0.3176097945270134    0.4536341091341811    0.3825808312104175 Se
   0.4555408290097722    0.5570823849962501    0.3825808312104175 Se
   0.5934718634925307    0.6605306608583191    0.3825808312104175 Se
   0.7314028979752896    0.7639789367203877    0.3825808312104176 Se
   0.8693339324580481    0.8674272125824570    0.3825808312104176 Se
   0.0072649669408065    0.9708754884445259    0.3825808312104175 Se
   0.1451960014235651    0.0743237643065948    0.3825808312104175 Se
   0.2831270359063238    0.1777720401686638    0.3825808312104175 Se
   0.4210580703890824    0.2812203160307328    0.3825808312104175 Se
   0.5589891048718412    0.3846685918928017    0.3825808312104175 Se
   0.6969201393545998    0.4881168677548706    0.3825808312104175 Se
   0.8348511738373581    0.5915651436169398    0.3825808312104175 Se
   0.9727822083201170    0.6950134194790086    0.3825808312104175 Se
   0.3865753117683928    0.0053582470652155    0.3825808312104175 Se
   0.5245063462511516    0.1088065229272845    0.3825808312104175 Se
   0.6624373807339101    0.2122547987893534    0.3825808312104175 Se
   0.8003684152166688    0.3157030746514224    0.3825808312104175 Se
   0.9382994496994274    0.4191513505134913    0.3825808312104175 Se
   0.7658856565959791    0.0398410056859052    0.3825808312104175 Se
   0.9038166910787375    0.1432892815479742    0.3825808312104175 Se
   0.6174194820847237    0.7439295970499926    0.8313182077635203 Se
   0.1174194820847234    0.7439295970499928    0.8313182077635203 Se
   0.4174194820847237    0.6439295970499928    0.8313182077635203 Se
   0.7174194820847238    0.5439295970499927    0.8313182077635203 Se
   0.9174194820847235    0.6439295970499928    0.8313182077635203 Se
   0.2174194820847234    0.5439295970499927    0.8313182077635203 Se
   0.5174194820847237    0.4439295970499928    0.8313182077635203 Se
   0.0174194820847235    0.4439295970499925    0.8313182077635203 Se
   0.3174194820847238    0.3439295970499927    0.8313182077635203 Se
   0.6174194820847239    0.2439295970499928    0.8313182077635203 Se
   0.8174194820847236    0.3439295970499927    0.8313182077635203 Se
   0.1174194820847236    0.2439295970499928    0.8313182077635203 Se
   0.4174194820847237    0.1439295970499927    0.8313182077635203 Se
   0.7174194820847238    0.0439295970499927    0.8313182077635203 Se
   0.9174194820847237    0.1439295970499926    0.8313182077635203 Se
   0.2174194820847236    0.0439295970499928    0.8313182077635203 Se
   0.5174194820847237    0.9439295970499927    0.8313182077635203 Se
   0.0174194820847235    0.9439295970499928    0.8313182077635203 Se
   0.3174194820847235    0.8439295970499927    0.8313182077635203 Se
   0.8174194820847238    0.8439295970499927    0.8313182077635203 Se
   0.9531654131122411    0.7442141531736428    0.7495056388254162 Se
   0.4531654131122413    0.7442141531736429    0.7495056388254162 Se
   0.7531654131122412    0.6442141531736432    0.7495056388254162 Se
   0.0531654131122414    0.5442141531736431    0.7495056388254162 Se
   0.2531654131122411    0.6442141531736432    0.7495056388254162 Se
   0.5531654131122411    0.5442141531736431    0.7495056388254162 Se
   0.8531654131122414    0.4442141531736430    0.7495056388254162 Se
   0.3531654131122411    0.4442141531736432    0.7495056388254162 Se
   0.6531654131122412    0.3442141531736432    0.7495056388254162 Se
   0.9531654131122412    0.2442141531736431    0.7495056388254162 Se
   0.1531654131122411    0.3442141531736432    0.7495056388254162 Se
   0.4531654131122413    0.2442141531736432    0.7495056388254162 Se
   0.7531654131122415    0.1442141531736432    0.7495056388254162 Se
   0.0531654131122414    0.0442141531736431    0.7495056388254162 Se
   0.2531654131122411    0.1442141531736431    0.7495056388254162 Se
   0.5531654131122410    0.0442141531736432    0.7495056388254162 Se
   0.8531654131122411    0.9442141531736431    0.7495056388254162 Se
   0.3531654131122410    0.9442141531736432    0.7495056388254162 Se
   0.6531654131122411    0.8442141531736433    0.7495056388254162 Se
   0.1531654131122411    0.8442141531736433    0.7495056388254162 Se
   0.7856258177714255    0.7446378557346018    0.6677845033197067 Se
   0.2856258177714255    0.7446378557346018    0.6677845033197066 Se
   0.5856258177714255    0.6446378557346019    0.6677845033197066 Se
   0.8856258177714259    0.5446378557346017    0.6677845033197066 Se
   0.0856258177714255    0.6446378557346018    0.6677845033197066 Se
   0.3856258177714255    0.5446378557346019    0.6677845033197066 Se
   0.6856258177714257    0.4446378557346019    0.6677845033197066 Se
   0.1856258177714253    0.4446378557346018    0.6677845033197066 Se
   0.4856258177714255    0.3446378557346018    0.6677845033197066 Se
   0.7856258177714257    0.2446378557346019    0.6677845033197066 Se
   0.9856258177714254    0.3446378557346018    0.6677845033197066 Se
   0.2856258177714255    0.2446378557346019    0.6677845033197066 Se
   0.5856258177714257    0.1446378557346018    0.6677845033197066 Se
   0.8856258177714257    0.0446378557346018    0.6677845033197066 Se
   0.0856258177714253    0.1446378557346019    0.6677845033197066 Se
   0.3856258177714255    0.0446378557346019    0.6677845033197066 Se
   0.6856258177714256    0.9446378557346019    0.6677845033197066 Se
   0.1856258177714255    0.9446378557346019    0.6677845033197066 Se
   0.4856258177714257    0.8446378557346018    0.6677845033197066 Se
   0.9856258177714254    0.8446378557346018    0.6677845033197066 Se
   0.9516182197120895    0.7481455449253703    0.6055580957863087 Se
   0.4516182197120899    0.7481455449253707    0.6055580957863087 Se
   0.7516182197120902    0.6481455449253706    0.6055580957863087 Se
   0.0516182197120902    0.5481455449253706    0.6055580957863087 Se
   0.2516182197120896    0.6481455449253706    0.6055580957863087 Se
   0.5516182197120898    0.5481455449253706    0.6055580957863087 Se
   0.8516182197120900    0.4481455449253706    0.6055580957863087 Se
   0.3516182197120896    0.4481455449253706    0.6055580957863087 Se
   0.6516182197120899    0.3481455449253706    0.6055580957863087 Se
   0.9516182197120898    0.2481455449253706    0.6055580957863087 Se
   0.1516182197120899    0.3481455449253706    0.6055580957863087 Se
   0.4516182197120899    0.2481455449253707    0.6055580957863087 Se
   0.7516182197120901    0.1481455449253706    0.6055580957863087 Se
   0.0516182197120902    0.0481455449253706    0.6055580957863087 Se
   0.2516182197120898    0.1481455449253706    0.6055580957863087 Se
   0.5516182197120898    0.0481455449253707    0.6055580957863087 Se
   0.8516182197120900    0.9481455449253706    0.6055580957863087 Se
   0.3516182197120897    0.9481455449253706    0.6055580957863087 Se
   0.6516182197120899    0.8481455449253705    0.6055580957863087 Se
   0.1516182197120897    0.8481455449253706    0.6055580957863087 Se
   0.7835154697251039    0.7485608224454184    0.5241890951556734 Se
   0.2835154697251041    0.7485608224454184    0.5241890951556734 Se
   0.5835154697251043    0.6485608224454187    0.5241890951556734 Se
   0.8835154697251045    0.5485608224454186    0.5241890951556734 Se
   0.0835154697251039    0.6485608224454184    0.5241890951556734 Se
   0.3835154697251037    0.5485608224454185    0.5241890951556734 Se
   0.6835154697251042    0.4485608224454186    0.5241890951556734 Se
   0.1835154697251038    0.4485608224454185    0.5241890951556734 Se
   0.4835154697251040    0.3485608224454184    0.5241890951556734 Se
   0.7835154697251042    0.2485608224454185    0.5241890951556734 Se
   0.9835154697251038    0.3485608224454185    0.5241890951556734 Se
   0.2835154697251040    0.2485608224454185    0.5241890951556734 Se
   0.5835154697251042    0.1485608224454185    0.5241890951556734 Se
   0.8835154697251041    0.0485608224454185    0.5241890951556734 Se
   0.0835154697251039    0.1485608224454185    0.5241890951556734 Se
   0.3835154697251041    0.0485608224454186    0.5241890951556734 Se
   0.6835154697251040    0.9485608224454185    0.5241890951556734 Se
   0.1835154697251039    0.9485608224454185    0.5241890951556734 Se
   0.4835154697251043    0.8485608224454186    0.5241890951556734 Se
   0.9835154697251040    0.8485608224454186    0.5241890951556734 Se
   0.6161111827979918    0.7482824896364493    0.4427015086099987 Se
   0.1161111827979919    0.7482824896364493    0.4427015086099987 Se
   0.4161111827979920    0.6482824896364496    0.4427015086099987 Se
   0.7161111827979921    0.5482824896364495    0.4427015086099987 Se
   0.9161111827979920    0.6482824896364493    0.4427015086099987 Se
   0.2161111827979917    0.5482824896364495    0.4427015086099987 Se
   0.5161111827979921    0.4482824896364494    0.4427015086099987 Se
   0.0161111827979919    0.4482824896364494    0.4427015086099987 Se
   0.3161111827979919    0.3482824896364495    0.4427015086099987 Se
   0.6161111827979922    0.2482824896364495    0.4427015086099987 Se
   0.8161111827979921    0.3482824896364496    0.4427015086099987 Se
   0.1161111827979920    0.2482824896364496    0.4427015086099987 Se
   0.4161111827979921    0.1482824896364495    0.4427015086099987 Se
   0.7161111827979922    0.0482824896364496    0.4427015086099987 Se
   0.9161111827979920    0.1482824896364495    0.4427015086099987 Se
   0.2161111827979919    0.0482824896364496    0.4427015086099987 Se
   0.5161111827979920    0.9482824896364496    0.4427015086099987 Se
   0.0161111827979918    0.9482824896364496    0.4427015086099987 Se
   0.3161111827979921    0.8482824896364495    0.4427015086099987 Se
   0.8161111827979921    0.8482824896364495    0.4427015086099987 Se
