Nb160 Bi220 Se650
1.0
  21.0680785730227882    0.0000000000000000    0.0000000000000013
   6.2634828166428136   39.4497108167654815    0.0000000000000024
   0.0000000000000000    0.0000000000000000   49.9893053307188922
Nb Bi Se
160 220 650
direct
   0.0413226650458335    0.9990434851639445    0.3566429020965912 Nb
   0.1788226650458336    0.0365434851639445    0.3566429020965912 Nb
   0.1663226650458335    0.1240434851639445    0.3566429020965912 Nb
   0.1538226650458334    0.2115434851639445    0.3566429020965912 Nb
   0.1413226650458334    0.2990434851639444    0.3566429020965912 Nb
   0.1288226650458335    0.3865434851639445    0.3566429020965913 Nb
   0.1163226650458335    0.4740434851639446    0.3566429020965913 Nb
   0.1038226650458334    0.5615434851639446    0.3566429020965913 Nb
   0.0913226650458334    0.6490434851639444    0.3566429020965913 Nb
   0.0788226650458334    0.7365434851639444    0.3566429020965913 Nb
   0.0663226650458333    0.8240434851639443    0.3566429020965913 Nb
   0.0538226650458333    0.9115434851639443    0.3566429020965913 Nb
   0.3163226650458336    0.0740434851639445    0.3566429020965912 Nb
   0.3038226650458336    0.1615434851639445    0.3566429020965912 Nb
   0.2913226650458335    0.2490434851639445    0.3566429020965912 Nb
   0.2788226650458335    0.3365434851639444    0.3566429020965913 Nb
   0.2663226650458334    0.4240434851639445    0.3566429020965913 Nb
   0.2538226650458334    0.5115434851639443    0.3566429020965913 Nb
   0.2413226650458333    0.5990434851639442    0.3566429020965913 Nb
   0.2288226650458335    0.6865434851639446    0.3566429020965913 Nb
   0.2163226650458335    0.7740434851639444    0.3566429020965913 Nb
   0.2038226650458335    0.8615434851639444    0.3566429020965913 Nb
   0.1913226650458333    0.9490434851639444    0.3566429020965913 Nb
   0.4663226650458335    0.0240434851639445    0.3566429020965912 Nb
   0.4538226650458335    0.1115434851639445    0.3566429020965912 Nb
   0.4413226650458336    0.1990434851639445    0.3566429020965913 Nb
   0.4288226650458334    0.2865434851639444    0.3566429020965913 Nb
   0.4163226650458334    0.3740434851639444    0.3566429020965913 Nb
   0.4038226650458335    0.4615434851639443    0.3566429020965913 Nb
   0.3913226650458335    0.5490434851639443    0.3566429020965913 Nb
   0.3788226650458333    0.6365434851639444    0.3566429020965913 Nb
   0.3663226650458334    0.7240434851639446    0.3566429020965913 Nb
   0.3538226650458335    0.8115434851639447    0.3566429020965913 Nb
   0.3413226650458336    0.8990434851639444    0.3566429020965913 Nb
   0.3288226650458335    0.9865434851639443    0.3566429020965912 Nb
   0.6038226650458337    0.0615434851639445    0.3566429020965912 Nb
   0.5913226650458334    0.1490434851639444    0.3566429020965913 Nb
   0.5788226650458337    0.2365434851639445    0.3566429020965913 Nb
   0.5663226650458336    0.3240434851639444    0.3566429020965913 Nb
   0.5538226650458334    0.4115434851639445    0.3566429020965913 Nb
   0.5413226650458335    0.4990434851639445    0.3566429020965913 Nb
   0.5288226650458335    0.5865434851639444    0.3566429020965913 Nb
   0.5163226650458336    0.6740434851639443    0.3566429020965913 Nb
   0.5038226650458334    0.7615434851639445    0.3566429020965913 Nb
   0.4913226650458336    0.8490434851639446    0.3566429020965913 Nb
   0.4788226650458335    0.9365434851639444    0.3566429020965912 Nb
   0.7538226650458336    0.0115434851639445    0.3566429020965912 Nb
   0.7413226650458336    0.0990434851639445    0.3566429020965913 Nb
   0.7288226650458335    0.1865434851639445    0.3566429020965913 Nb
   0.7163226650458336    0.2740434851639446    0.3566429020965913 Nb
   0.7038226650458335    0.3615434851639445    0.3566429020965913 Nb
   0.6913226650458335    0.4490434851639443    0.3566429020965913 Nb
   0.6788226650458334    0.5365434851639445    0.3566429020965913 Nb
   0.6663226650458335    0.6240434851639446    0.3566429020965913 Nb
   0.6538226650458335    0.7115434851639445    0.3566429020965913 Nb
   0.6413226650458336    0.7990434851639443    0.3566429020965913 Nb
   0.6288226650458335    0.8865434851639445    0.3566429020965912 Nb
   0.6163226650458337    0.9740434851639446    0.3566429020965912 Nb
   0.8913226650458335    0.0490434851639444    0.3566429020965913 Nb
   0.8788226650458337    0.1365434851639444    0.3566429020965913 Nb
   0.8663226650458333    0.2240434851639445    0.3566429020965913 Nb
   0.8538226650458335    0.3115434851639445    0.3566429020965913 Nb
   0.8413226650458335    0.3990434851639444    0.3566429020965913 Nb
   0.8288226650458334    0.4865434851639445    0.3566429020965913 Nb
   0.8163226650458335    0.5740434851639444    0.3566429020965913 Nb
   0.8038226650458336    0.6615434851639443    0.3566429020965913 Nb
   0.7913226650458333    0.7490434851639445    0.3566429020965912 Nb
   0.7788226650458338    0.8365434851639444    0.3566429020965912 Nb
   0.7663226650458335    0.9240434851639442    0.3566429020965912 Nb
   0.0288226650458336    0.0865434851639445    0.3566429020965912 Nb
   0.0163226650458339    0.1740434851639444    0.3566429020965912 Nb
   0.0038226650458334    0.2615434851639445    0.3566429020965912 Nb
   0.9913226650458337    0.3490434851639445    0.3566429020965912 Nb
   0.9788226650458336    0.4365434851639446    0.3566429020965913 Nb
   0.9663226650458335    0.5240434851639445    0.3566429020965913 Nb
   0.9538226650458337    0.6115434851639444    0.3566429020965913 Nb
   0.9413226650458338    0.6990434851639444    0.3566429020965912 Nb
   0.9288226650458336    0.7865434851639443    0.3566429020965912 Nb
   0.9163226650458336    0.8740434851639447    0.3566429020965912 Nb
   0.9038226650458336    0.9615434851639445    0.3566429020965912 Nb
   0.0417866722419317    0.9990479861373662    0.2336917587878816 Nb
   0.1792866722419316    0.0365479861373662    0.2336917587878816 Nb
   0.1667866722419316    0.1240479861373662    0.2336917587878816 Nb
   0.1542866722419316    0.2115479861373662    0.2336917587878816 Nb
   0.1417866722419316    0.2990479861373662    0.2336917587878816 Nb
   0.1292866722419315    0.3865479861373660    0.2336917587878816 Nb
   0.1167866722419315    0.4740479861373662    0.2336917587878816 Nb
   0.1042866722419316    0.5615479861373662    0.2336917587878816 Nb
   0.0917866722419316    0.6490479861373660    0.2336917587878816 Nb
   0.0792866722419315    0.7365479861373661    0.2336917587878816 Nb
   0.0667866722419316    0.8240479861373662    0.2336917587878816 Nb
   0.0542866722419313    0.9115479861373660    0.2336917587878816 Nb
   0.3167866722419317    0.0740479861373662    0.2336917587878816 Nb
   0.3042866722419317    0.1615479861373662    0.2336917587878816 Nb
   0.2917866722419317    0.2490479861373662    0.2336917587878816 Nb
   0.2792866722419316    0.3365479861373662    0.2336917587878816 Nb
   0.2667866722419317    0.4240479861373662    0.2336917587878816 Nb
   0.2542866722419316    0.5115479861373661    0.2336917587878816 Nb
   0.2417866722419316    0.5990479861373662    0.2336917587878816 Nb
   0.2292866722419316    0.6865479861373662    0.2336917587878816 Nb
   0.2167866722419315    0.7740479861373660    0.2336917587878816 Nb
   0.2042866722419314    0.8615479861373659    0.2336917587878816 Nb
   0.1917866722419315    0.9490479861373661    0.2336917587878816 Nb
   0.4667866722419316    0.0240479861373662    0.2336917587878816 Nb
   0.4542866722419316    0.1115479861373662    0.2336917587878816 Nb
   0.4417866722419316    0.1990479861373662    0.2336917587878816 Nb
   0.4292866722419316    0.2865479861373662    0.2336917587878816 Nb
   0.4167866722419316    0.3740479861373662    0.2336917587878816 Nb
   0.4042866722419315    0.4615479861373660    0.2336917587878816 Nb
   0.3917866722419315    0.5490479861373661    0.2336917587878816 Nb
   0.3792866722419315    0.6365479861373660    0.2336917587878816 Nb
   0.3667866722419315    0.7240479861373662    0.2336917587878816 Nb
   0.3542866722419317    0.8115479861373663    0.2336917587878816 Nb
   0.3417866722419316    0.8990479861373660    0.2336917587878816 Nb
   0.3292866722419316    0.9865479861373661    0.2336917587878816 Nb
   0.6042866722419318    0.0615479861373662    0.2336917587878816 Nb
   0.5917866722419316    0.1490479861373662    0.2336917587878816 Nb
   0.5792866722419316    0.2365479861373662    0.2336917587878816 Nb
   0.5667866722419316    0.3240479861373662    0.2336917587878816 Nb
   0.5542866722419315    0.4115479861373662    0.2336917587878816 Nb
   0.5417866722419318    0.4990479861373661    0.2336917587878816 Nb
   0.5292866722419316    0.5865479861373661    0.2336917587878816 Nb
   0.5167866722419318    0.6740479861373661    0.2336917587878816 Nb
   0.5042866722419316    0.7615479861373662    0.2336917587878816 Nb
   0.4917866722419317    0.8490479861373662    0.2336917587878816 Nb
   0.4792866722419314    0.9365479861373659    0.2336917587878816 Nb
   0.7542866722419319    0.0115479861373662    0.2336917587878816 Nb
   0.7417866722419317    0.0990479861373662    0.2336917587878816 Nb
   0.7292866722419317    0.1865479861373661    0.2336917587878816 Nb
   0.7167866722419317    0.2740479861373662    0.2336917587878816 Nb
   0.7042866722419316    0.3615479861373662    0.2336917587878816 Nb
   0.6917866722419317    0.4490479861373662    0.2336917587878816 Nb
   0.6792866722419317    0.5365479861373662    0.2336917587878816 Nb
   0.6667866722419317    0.6240479861373661    0.2336917587878816 Nb
   0.6542866722419316    0.7115479861373660    0.2336917587878816 Nb
   0.6417866722419315    0.7990479861373659    0.2336917587878816 Nb
   0.6292866722419317    0.8865479861373662    0.2336917587878816 Nb
   0.6167866722419317    0.9740479861373662    0.2336917587878816 Nb
   0.8917866722419316    0.0490479861373662    0.2336917587878816 Nb
   0.8792866722419317    0.1365479861373662    0.2336917587878816 Nb
   0.8667866722419316    0.2240479861373662    0.2336917587878816 Nb
   0.8542866722419318    0.3115479861373662    0.2336917587878816 Nb
   0.8417866722419316    0.3990479861373661    0.2336917587878816 Nb
   0.8292866722419315    0.4865479861373662    0.2336917587878816 Nb
   0.8167866722419316    0.5740479861373662    0.2336917587878816 Nb
   0.8042866722419314    0.6615479861373660    0.2336917587878816 Nb
   0.7917866722419316    0.7490479861373662    0.2336917587878816 Nb
   0.7792866722419315    0.8365479861373660    0.2336917587878816 Nb
   0.7667866722419314    0.9240479861373661    0.2336917587878816 Nb
   0.0292866722419316    0.0865479861373662    0.2336917587878816 Nb
   0.0167866722419318    0.1740479861373662    0.2336917587878816 Nb
   0.0042866722419316    0.2615479861373662    0.2336917587878816 Nb
   0.9917866722419320    0.3490479861373662    0.2336917587878816 Nb
   0.9792866722419316    0.4365479861373662    0.2336917587878816 Nb
   0.9667866722419317    0.5240479861373661    0.2336917587878816 Nb
   0.9542866722419314    0.6115479861373658    0.2336917587878816 Nb
   0.9417866722419316    0.6990479861373662    0.2336917587878816 Nb
   0.9292866722419317    0.7865479861373661    0.2336917587878816 Nb
   0.9167866722419317    0.8740479861373661    0.2336917587878816 Nb
   0.9042866722419317    0.9615479861373661    0.2336917587878816 Nb
   0.1736295505635687    0.7991598078277037    0.7671208852038272 Bi
   0.2463568232908414    0.8900688987367946    0.7671208852038272 Bi
   0.1554477323817506    0.5264325351004308    0.7671208852038272 Bi
   0.2281750051090232    0.6173416260095219    0.7671208852038272 Bi
   0.3009022778362960    0.7082507169186127    0.7671208852038272 Bi
   0.3736295505635687    0.7991598078277036    0.7671208852038272 Bi
   0.4463568232908418    0.8900688987367946    0.7671208852038272 Bi
   0.1372659141999323    0.2537052623731580    0.7671208852038272 Bi
   0.2099931869272051    0.3446143532822490    0.7671208852038272 Bi
   0.2827204596544778    0.4355234441913399    0.7671208852038272 Bi
   0.3554477323817506    0.5264325351004310    0.7671208852038272 Bi
   0.4281750051090233    0.6173416260095218    0.7671208852038272 Bi
   0.5009022778362959    0.7082507169186126    0.7671208852038272 Bi
   0.5736295505635690    0.7991598078277037    0.7671208852038272 Bi
   0.6463568232908412    0.8900688987367946    0.7671208852038272 Bi
   0.1190840960181140    0.9809779896458852    0.7671208852038272 Bi
   0.1918113687453868    0.0718870805549762    0.7671208852038272 Bi
   0.2645386414726596    0.1627961714640671    0.7671208852038272 Bi
   0.3372659141999323    0.2537052623731579    0.7671208852038272 Bi
   0.4099931869272052    0.3446143532822489    0.7671208852038272 Bi
   0.4827204596544777    0.4355234441913399    0.7671208852038272 Bi
   0.5554477323817503    0.5264325351004308    0.7671208852038272 Bi
   0.6281750051090234    0.6173416260095217    0.7671208852038272 Bi
   0.7009022778362961    0.7082507169186126    0.7671208852038272 Bi
   0.7736295505635687    0.7991598078277036    0.7671208852038272 Bi
   0.8463568232908418    0.8900688987367946    0.7671208852038272 Bi
   0.3190840960181140    0.9809779896458852    0.7671208852038272 Bi
   0.3918113687453869    0.0718870805549762    0.7671208852038272 Bi
   0.4645386414726596    0.1627961714640671    0.7671208852038272 Bi
   0.5372659141999323    0.2537052623731579    0.7671208852038272 Bi
   0.6099931869272049    0.3446143532822489    0.7671208852038272 Bi
   0.6827204596544779    0.4355234441913399    0.7671208852038272 Bi
   0.7554477323817504    0.5264325351004308    0.7671208852038272 Bi
   0.8281750051090234    0.6173416260095217    0.7671208852038272 Bi
   0.9009022778362962    0.7082507169186127    0.7671208852038272 Bi
   0.9736295505635690    0.7991598078277036    0.7671208852038272 Bi
   0.0463568232908416    0.8900688987367945    0.7671208852038272 Bi
   0.5190840960181143    0.9809779896458852    0.7671208852038272 Bi
   0.5918113687453866    0.0718870805549761    0.7671208852038272 Bi
   0.6645386414726594    0.1627961714640670    0.7671208852038272 Bi
   0.7372659141999323    0.2537052623731580    0.7671208852038272 Bi
   0.8099931869272051    0.3446143532822490    0.7671208852038272 Bi
   0.8827204596544780    0.4355234441913398    0.7671208852038272 Bi
   0.9554477323817505    0.5264325351004308    0.7671208852038272 Bi
   0.0281750051090234    0.6173416260095217    0.7671208852038272 Bi
   0.1009022778362960    0.7082507169186127    0.7671208852038272 Bi
   0.7190840960181142    0.9809779896458852    0.7671208852038272 Bi
   0.7918113687453866    0.0718870805549761    0.7671208852038272 Bi
   0.8645386414726596    0.1627961714640670    0.7671208852038272 Bi
   0.9372659141999323    0.2537052623731580    0.7671208852038272 Bi
   0.0099931869272052    0.3446143532822489    0.7671208852038272 Bi
   0.0827204596544778    0.4355234441913398    0.7671208852038272 Bi
   0.9190840960181141    0.9809779896458852    0.7671208852038272 Bi
   0.9918113687453869    0.0718870805549761    0.7671208852038272 Bi
   0.0645386414726594    0.1627961714640671    0.7671208852038272 Bi
   0.0631441189504425    0.8301055441263093    0.6873709670584138 Bi
   0.1358713916777151    0.9210146350354003    0.6873709670584138 Bi
   0.0449623007686242    0.5573782713990366    0.6873709670584138 Bi
   0.1176895734958971    0.6482873623081276    0.6873709670584138 Bi
   0.1904168462231697    0.7391964532172185    0.6873709670584138 Bi
   0.2631441189504422    0.8301055441263095    0.6873709670584138 Bi
   0.3358713916777152    0.9210146350354003    0.6873709670584138 Bi
   0.0267804825868059    0.2846509986717639    0.6873709670584138 Bi
   0.0995077553140786    0.3755600895808547    0.6873709670584138 Bi
   0.1722350280413514    0.4664691804899458    0.6873709670584138 Bi
   0.2449623007686242    0.5573782713990367    0.6873709670584138 Bi
   0.3176895734958970    0.6482873623081276    0.6873709670584138 Bi
   0.3904168462231698    0.7391964532172185    0.6873709670584138 Bi
   0.4631441189504420    0.8301055441263093    0.6873709670584138 Bi
   0.5358713916777151    0.9210146350354005    0.6873709670584138 Bi
   0.0085986644049876    0.0119237259444911    0.6873709670584139 Bi
   0.0813259371322604    0.1028328168535820    0.6873709670584138 Bi
   0.1540532098595332    0.1937419077626729    0.6873709670584138 Bi
   0.2267804825868059    0.2846509986717638    0.6873709670584138 Bi
   0.2995077553140785    0.3755600895808547    0.6873709670584138 Bi
   0.3722350280413515    0.4664691804899457    0.6873709670584138 Bi
   0.4449623007686240    0.5573782713990366    0.6873709670584138 Bi
   0.5176895734958972    0.6482873623081276    0.6873709670584138 Bi
   0.5904168462231696    0.7391964532172184    0.6873709670584138 Bi
   0.6631441189504423    0.8301055441263093    0.6873709670584138 Bi
   0.7358713916777151    0.9210146350354003    0.6873709670584138 Bi
   0.2085986644049877    0.0119237259444911    0.6873709670584138 Bi
   0.2813259371322605    0.1028328168535820    0.6873709670584138 Bi
   0.3540532098595330    0.1937419077626730    0.6873709670584138 Bi
   0.4267804825868058    0.2846509986717638    0.6873709670584138 Bi
   0.4995077553140785    0.3755600895808547    0.6873709670584138 Bi
   0.5722350280413516    0.4664691804899458    0.6873709670584138 Bi
   0.6449623007686244    0.5573782713990366    0.6873709670584138 Bi
   0.7176895734958968    0.6482873623081276    0.6873709670584138 Bi
   0.7904168462231698    0.7391964532172185    0.6873709670584138 Bi
   0.8631441189504427    0.8301055441263095    0.6873709670584138 Bi
   0.9358713916777148    0.9210146350354002    0.6873709670584138 Bi
   0.4085986644049878    0.0119237259444911    0.6873709670584138 Bi
   0.4813259371322603    0.1028328168535820    0.6873709670584138 Bi
   0.5540532098595331    0.1937419077626730    0.6873709670584138 Bi
   0.6267804825868060    0.2846509986717639    0.6873709670584138 Bi
   0.6995077553140788    0.3755600895808549    0.6873709670584138 Bi
   0.7722350280413516    0.4664691804899457    0.6873709670584138 Bi
   0.8449623007686241    0.5573782713990366    0.6873709670584138 Bi
   0.9176895734958971    0.6482873623081276    0.6873709670584138 Bi
   0.9904168462231695    0.7391964532172185    0.6873709670584138 Bi
   0.6085986644049877    0.0119237259444911    0.6873709670584138 Bi
   0.6813259371322605    0.1028328168535820    0.6873709670584138 Bi
   0.7540532098595332    0.1937419077626729    0.6873709670584138 Bi
   0.8267804825868059    0.2846509986717639    0.6873709670584138 Bi
   0.8995077553140787    0.3755600895808549    0.6873709670584138 Bi
   0.9722350280413514    0.4664691804899457    0.6873709670584138 Bi
   0.8085986644049877    0.0119237259444910    0.6873709670584138 Bi
   0.8813259371322605    0.1028328168535820    0.6873709670584138 Bi
   0.9540532098595331    0.1937419077626729    0.6873709670584138 Bi
   0.0601265707341268    0.8296679979592232    0.5665155440360311 Bi
   0.1328538434613996    0.9205770888683142    0.5665155440360312 Bi
   0.0419447525523087    0.5569407252319505    0.5665155440360311 Bi
   0.1146720252795814    0.6478498161410414    0.5665155440360311 Bi
   0.1873992980068541    0.7387589070501323    0.5665155440360311 Bi
   0.2601265707341268    0.8296679979592233    0.5665155440360311 Bi
   0.3328538434613995    0.9205770888683140    0.5665155440360312 Bi
   0.0237629343704904    0.2842134525046776    0.5665155440360311 Bi
   0.0964902070977631    0.3751225434137685    0.5665155440360311 Bi
   0.1692174798250359    0.4660316343228595    0.5665155440360311 Bi
   0.2419447525523087    0.5569407252319505    0.5665155440360311 Bi
   0.3146720252795813    0.6478498161410413    0.5665155440360311 Bi
   0.3873992980068542    0.7387589070501323    0.5665155440360311 Bi
   0.4601265707341270    0.8296679979592233    0.5665155440360312 Bi
   0.5328538434613993    0.9205770888683142    0.5665155440360312 Bi
   0.0055811161886721    0.0114861797774049    0.5665155440360312 Bi
   0.0783083889159449    0.1023952706864958    0.5665155440360311 Bi
   0.1510356616432178    0.1933043615955867    0.5665155440360311 Bi
   0.2237629343704904    0.2842134525046776    0.5665155440360311 Bi
   0.2964902070977631    0.3751225434137686    0.5665155440360311 Bi
   0.3692174798250360    0.4660316343228595    0.5665155440360311 Bi
   0.4419447525523088    0.5569407252319504    0.5665155440360311 Bi
   0.5146720252795813    0.6478498161410414    0.5665155440360311 Bi
   0.5873992980068544    0.7387589070501323    0.5665155440360312 Bi
   0.6601265707341269    0.8296679979592232    0.5665155440360312 Bi
   0.7328538434613998    0.9205770888683142    0.5665155440360312 Bi
   0.2055811161886722    0.0114861797774048    0.5665155440360311 Bi
   0.2783083889159448    0.1023952706864957    0.5665155440360311 Bi
   0.3510356616432177    0.1933043615955867    0.5665155440360311 Bi
   0.4237629343704906    0.2842134525046776    0.5665155440360311 Bi
   0.4964902070977633    0.3751225434137686    0.5665155440360311 Bi
   0.5692174798250362    0.4660316343228595    0.5665155440360311 Bi
   0.6419447525523088    0.5569407252319505    0.5665155440360311 Bi
   0.7146720252795816    0.6478498161410414    0.5665155440360312 Bi
   0.7873992980068542    0.7387589070501323    0.5665155440360312 Bi
   0.8601265707341271    0.8296679979592232    0.5665155440360312 Bi
   0.9328538434613995    0.9205770888683140    0.5665155440360312 Bi
   0.4055811161886723    0.0114861797774048    0.5665155440360311 Bi
   0.4783083889159450    0.1023952706864958    0.5665155440360311 Bi
   0.5510356616432177    0.1933043615955867    0.5665155440360311 Bi
   0.6237629343704905    0.2842134525046776    0.5665155440360311 Bi
   0.6964902070977634    0.3751225434137686    0.5665155440360311 Bi
   0.7692174798250361    0.4660316343228594    0.5665155440360311 Bi
   0.8419447525523087    0.5569407252319504    0.5665155440360312 Bi
   0.9146720252795814    0.6478498161410413    0.5665155440360312 Bi
   0.9873992980068539    0.7387589070501323    0.5665155440360311 Bi
   0.6055811161886723    0.0114861797774048    0.5665155440360311 Bi
   0.6783083889159450    0.1023952706864957    0.5665155440360311 Bi
   0.7510356616432178    0.1933043615955867    0.5665155440360311 Bi
   0.8237629343704904    0.2842134525046776    0.5665155440360311 Bi
   0.8964902070977632    0.3751225434137686    0.5665155440360311 Bi
   0.9692174798250359    0.4660316343228594    0.5665155440360311 Bi
   0.8055811161886722    0.0114861797774048    0.5665155440360311 Bi
   0.8783083889159450    0.1023952706864957    0.5665155440360311 Bi
   0.9510356616432176    0.1933043615955867    0.5665155440360311 Bi
   0.0780671306725843    0.7696025081422506    0.4870641414761426 Bi
   0.1507944033998574    0.8605115990513417    0.4870641414761426 Bi
   0.0598853124907662    0.4968752354149779    0.4870641414761425 Bi
   0.1326125852180389    0.5877843263240689    0.4870641414761426 Bi
   0.2053398579453117    0.6786934172331597    0.4870641414761426 Bi
   0.2780671306725845    0.7696025081422507    0.4870641414761426 Bi
   0.3507944033998571    0.8605115990513417    0.4870641414761426 Bi
   0.0417034943089480    0.2241479626877050    0.4870641414761425 Bi
   0.1144307670362207    0.3150570535967959    0.4870641414761425 Bi
   0.1871580397634934    0.4059661445058869    0.4870641414761425 Bi
   0.2598853124907664    0.4968752354149780    0.4870641414761426 Bi
   0.3326125852180389    0.5877843263240687    0.4870641414761426 Bi
   0.4053398579453116    0.6786934172331597    0.4870641414761426 Bi
   0.4780671306725844    0.7696025081422507    0.4870641414761426 Bi
   0.5507944033998571    0.8605115990513417    0.4870641414761426 Bi
   0.0235216761271297    0.9514206899604325    0.4870641414761426 Bi
   0.0962489488544025    0.0423297808695232    0.4870641414761425 Bi
   0.1689762215816752    0.1332388717786141    0.4870641414761425 Bi
   0.2417034943089479    0.2241479626877050    0.4870641414761425 Bi
   0.3144307670362208    0.3150570535967960    0.4870641414761425 Bi
   0.3871580397634936    0.4059661445058869    0.4870641414761426 Bi
   0.4598853124907662    0.4968752354149777    0.4870641414761426 Bi
   0.5326125852180391    0.5877843263240689    0.4870641414761426 Bi
   0.6053398579453118    0.6786934172331597    0.4870641414761426 Bi
   0.6780671306725844    0.7696025081422507    0.4870641414761426 Bi
   0.7507944033998574    0.8605115990513418    0.4870641414761426 Bi
   0.2235216761271298    0.9514206899604324    0.4870641414761426 Bi
   0.2962489488544025    0.0423297808695232    0.4870641414761425 Bi
   0.3689762215816753    0.1332388717786141    0.4870641414761425 Bi
   0.4417034943089480    0.2241479626877050    0.4870641414761425 Bi
   0.5144307670362207    0.3150570535967960    0.4870641414761426 Bi
   0.5871580397634937    0.4059661445058869    0.4870641414761426 Bi
   0.6598853124907665    0.4968752354149779    0.4870641414761426 Bi
   0.7326125852180392    0.5877843263240687    0.4870641414761426 Bi
   0.8053398579453118    0.6786934172331597    0.4870641414761426 Bi
   0.8780671306725845    0.7696025081422506    0.4870641414761426 Bi
   0.9507944033998569    0.8605115990513417    0.4870641414761426 Bi
   0.4235216761271299    0.9514206899604324    0.4870641414761426 Bi
   0.4962489488544025    0.0423297808695232    0.4870641414761425 Bi
   0.5689762215816753    0.1332388717786141    0.4870641414761425 Bi
   0.6417034943089481    0.2241479626877050    0.4870641414761425 Bi
   0.7144307670362209    0.3150570535967960    0.4870641414761426 Bi
   0.7871580397634936    0.4059661445058869    0.4870641414761426 Bi
   0.8598853124907666    0.4968752354149777    0.4870641414761426 Bi
   0.9326125852180392    0.5877843263240689    0.4870641414761426 Bi
   0.0053398579453115    0.6786934172331598    0.4870641414761426 Bi
   0.6235216761271298    0.9514206899604322    0.4870641414761426 Bi
   0.6962489488544025    0.0423297808695231    0.4870641414761425 Bi
   0.7689762215816754    0.1332388717786142    0.4870641414761425 Bi
   0.8417034943089481    0.2241479626877050    0.4870641414761426 Bi
   0.9144307670362213    0.3150570535967960    0.4870641414761426 Bi
   0.9871580397634937    0.4059661445058869    0.4870641414761425 Bi
   0.8235216761271298    0.9514206899604322    0.4870641414761426 Bi
   0.8962489488544028    0.0423297808695232    0.4870641414761425 Bi
   0.9689762215816753    0.1332388717786142    0.4870641414761425 Bi
   0.0001384898406302    0.9573694761664733    0.2000427878291580 Se
   0.1376384898406303    0.9948694761664731    0.2000427878291580 Se
   0.1251384898406303    0.0823694761664732    0.2000427878291580 Se
   0.1126384898406303    0.1698694761664732    0.2000427878291580 Se
   0.1001384898406303    0.2573694761664731    0.2000427878291580 Se
   0.0876384898406303    0.3448694761664731    0.2000427878291580 Se
   0.0751384898406303    0.4323694761664733    0.2000427878291580 Se
   0.0626384898406302    0.5198694761664733    0.2000427878291580 Se
   0.0501384898406302    0.6073694761664732    0.2000427878291580 Se
   0.0376384898406303    0.6948694761664731    0.2000427878291580 Se
   0.0251384898406302    0.7823694761664731    0.2000427878291580 Se
   0.0126384898406299    0.8698694761664729    0.2000427878291580 Se
   0.2751384898406303    0.0323694761664732    0.2000427878291580 Se
   0.2626384898406303    0.1198694761664731    0.2000427878291580 Se
   0.2501384898406304    0.2073694761664732    0.2000427878291580 Se
   0.2376384898406303    0.2948694761664731    0.2000427878291580 Se
   0.2251384898406303    0.3823694761664732    0.2000427878291580 Se
   0.2126384898406302    0.4698694761664730    0.2000427878291580 Se
   0.2001384898406302    0.5573694761664731    0.2000427878291580 Se
   0.1876384898406303    0.6448694761664733    0.2000427878291580 Se
   0.1751384898406302    0.7323694761664730    0.2000427878291580 Se
   0.1626384898406301    0.8198694761664729    0.2000427878291580 Se
   0.1501384898406302    0.9073694761664730    0.2000427878291580 Se
   0.4251384898406303    0.9823694761664732    0.2000427878291580 Se
   0.4126384898406303    0.0698694761664731    0.2000427878291580 Se
   0.4001384898406303    0.1573694761664731    0.2000427878291580 Se
   0.3876384898406303    0.2448694761664731    0.2000427878291580 Se
   0.3751384898406303    0.3323694761664731    0.2000427878291580 Se
   0.3626384898406302    0.4198694761664730    0.2000427878291580 Se
   0.3501384898406303    0.5073694761664730    0.2000427878291580 Se
   0.3376384898406304    0.5948694761664731    0.2000427878291580 Se
   0.3251384898406301    0.6823694761664731    0.2000427878291580 Se
   0.3126384898406302    0.7698694761664731    0.2000427878291580 Se
   0.3001384898406302    0.8573694761664730    0.2000427878291580 Se
   0.2876384898406300    0.9448694761664730    0.2000427878291580 Se
   0.5626384898406304    0.0198694761664731    0.2000427878291580 Se
   0.5501384898406303    0.1073694761664731    0.2000427878291580 Se
   0.5376384898406303    0.1948694761664731    0.2000427878291580 Se
   0.5251384898406304    0.2823694761664732    0.2000427878291580 Se
   0.5126384898406302    0.3698694761664731    0.2000427878291580 Se
   0.5001384898406303    0.4573694761664731    0.2000427878291580 Se
   0.4876384898406305    0.5448694761664731    0.2000427878291580 Se
   0.4751384898406303    0.6323694761664732    0.2000427878291580 Se
   0.4626384898406301    0.7198694761664728    0.2000427878291580 Se
   0.4501384898406302    0.8073694761664731    0.2000427878291580 Se
   0.4376384898406301    0.8948694761664731    0.2000427878291580 Se
   0.7126384898406303    0.9698694761664731    0.2000427878291580 Se
   0.7001384898406304    0.0573694761664731    0.2000427878291580 Se
   0.6876384898406304    0.1448694761664731    0.2000427878291580 Se
   0.6751384898406305    0.2323694761664732    0.2000427878291580 Se
   0.6626384898406303    0.3198694761664732    0.2000427878291580 Se