Nb64 Bi92 Se266
1.0
   6.9271415635605562    0.0000000000000000    0.0000000000000004
   3.4635707791200931   47.9926445587718433    0.0000000000000029
   0.0000000000000000    0.0000000000000000   44.4624158930297497
Nb Bi Se
64 92 266
direct
   0.4196735992974652    0.8676841337874669    0.3447480443666843 Nb
   0.9196735992974643    0.8676841337874669    0.3447480443666843 Nb
   0.2009235992974643    0.8051841337874669    0.3447480443666843 Nb
   0.7009235992974649    0.8051841337874669    0.3447480443666843 Nb
   0.4821735992974640    0.7426841337874670    0.3447480443666843 Nb
   0.9821735992974634    0.7426841337874670    0.3447480443666843 Nb
   0.2634235992974643    0.6801841337874670    0.3447480443666843 Nb
   0.7634235992974643    0.6801841337874670    0.3447480443666843 Nb
   0.5446735992974645    0.6176841337874669    0.3447480443666843 Nb
   0.0446735992974652    0.6176841337874669    0.3447480443666843 Nb
   0.3259235992974646    0.5551841337874670    0.3447480443666843 Nb
   0.8259235992974647    0.5551841337874670    0.3447480443666843 Nb
   0.6071735992974647    0.4926841337874671    0.3447480443666843 Nb
   0.1071735992974644    0.4926841337874669    0.3447480443666843 Nb
   0.3884235992974650    0.4301841337874669    0.3447480443666843 Nb
   0.8884235992974654    0.4301841337874669    0.3447480443666843 Nb
   0.1696735992974653    0.3676841337874669    0.3447480443666843 Nb
   0.6696735992974652    0.3676841337874669    0.3447480443666843 Nb
   0.4509235992974655    0.3051841337874669    0.3447480443666843 Nb
   0.9509235992974653    0.3051841337874669    0.3447480443666843 Nb
   0.2321735992974654    0.2426841337874669    0.3447480443666843 Nb
   0.7321735992974655    0.2426841337874669    0.3447480443666843 Nb
   0.5134235992974654    0.1801841337874669    0.3447480443666843 Nb
   0.0134235992974654    0.1801841337874669    0.3447480443666843 Nb
   0.2946735992974654    0.1176841337874670    0.3447480443666843 Nb
   0.7946735992974655    0.1176841337874670    0.3447480443666843 Nb
   0.5759235992974658    0.0551841337874670    0.3447480443666843 Nb
   0.0759235992974654    0.0551841337874669    0.3447480443666843 Nb
   0.3571735992974658    0.9926841337874670    0.3447480443666843 Nb
   0.8571735992974655    0.9926841337874669    0.3447480443666843 Nb
   0.1384235992974648    0.9301841337874669    0.3447480443666843 Nb
   0.6384235992974647    0.9301841337874669    0.3447480443666843 Nb
   0.4196333591308309    0.8674808493283351    0.2065134900768984 Nb
   0.9196333591308309    0.8674808493283351    0.2065134900768984 Nb
   0.2008833591308308    0.8049808493283351    0.2065134900768984 Nb
   0.7008833591308308    0.8049808493283351    0.2065134900768984 Nb
   0.4821333591308313    0.7424808493283352    0.2065134900768984 Nb
   0.9821333591308312    0.7424808493283352    0.2065134900768984 Nb
   0.2633833591308312    0.6799808493283352    0.2065134900768984 Nb
   0.7633833591308318    0.6799808493283352    0.2065134900768984 Nb
   0.5446333591308314    0.6174808493283351    0.2065134900768984 Nb
   0.0446333591308318    0.6174808493283351    0.2065134900768984 Nb
   0.3258833591308316    0.5549808493283352    0.2065134900768984 Nb
   0.8258833591308314    0.5549808493283352    0.2065134900768984 Nb
   0.6071333591308314    0.4924808493283352    0.2065134900768984 Nb
   0.1071333591308316    0.4924808493283352    0.2065134900768984 Nb
   0.3883833591308318    0.4299808493283351    0.2065134900768984 Nb
   0.8883833591308323    0.4299808493283352    0.2065134900768984 Nb
   0.1696333591308322    0.3674808493283351    0.2065134900768984 Nb
   0.6696333591308319    0.3674808493283352    0.2065134900768984 Nb
   0.4508833591308322    0.3049808493283351    0.2065134900768984 Nb
   0.9508833591308319    0.3049808493283352    0.2065134900768984 Nb
   0.2321333591308321    0.2424808493283351    0.2065134900768984 Nb
   0.7321333591308320    0.2424808493283351    0.2065134900768984 Nb
   0.5133833591308321    0.1799808493283352    0.2065134900768984 Nb
   0.0133833591308319    0.1799808493283351    0.2065134900768984 Nb
   0.2946333591308321    0.1174808493283351    0.2065134900768984 Nb
   0.7946333591308322    0.1174808493283352    0.2065134900768983 Nb
   0.5758833591308324    0.0549808493283352    0.2065134900768984 Nb
   0.0758833591308321    0.0549808493283351    0.2065134900768984 Nb
   0.3571333591308324    0.9924808493283351    0.2065134900768984 Nb
   0.8571333591308321    0.9924808493283351    0.2065134900768984 Nb
   0.1383833591308323    0.9299808493283349    0.2065134900768984 Nb
   0.6383833591308323    0.9299808493283350    0.2065134900768984 Nb
   0.3816972375033523    0.8934083213068728    0.7944001694220464 Bi
   0.9034363679381342    0.8499300604373076    0.7944001694220465 Bi
   0.4251754983729170    0.8064517995677424    0.7944001694220464 Bi
   0.9469146288076999    0.7629735386981772    0.7944001694220465 Bi
   0.4686537592424824    0.7194952778286118    0.7944001694220465 Bi
   0.9903928896772646    0.6760170169590466    0.7944001694220465 Bi
   0.5121320201120474    0.6325387560894814    0.7944001694220465 Bi
   0.0338711505468301    0.5890604952199162    0.7944001694220465 Bi
   0.5556102809816122    0.5455822343503510    0.7944001694220465 Bi
   0.0773494114163953    0.5021039734807858    0.7944001694220465 Bi
   0.5990885418511785    0.4586257126112205    0.7944001694220465 Bi
   0.1208276722859602    0.4151474517416553    0.7944001694220465 Bi
   0.6425668027207431    0.3716691908720901    0.7944001694220465 Bi
   0.1643059331555255    0.3281909300025249    0.7944001694220465 Bi
   0.6860450635903081    0.2847126691329597    0.7944001694220465 Bi
   0.2077841940250907    0.2412344082633945    0.7944001694220465 Bi
   0.7295233244598730    0.1977561473938292    0.7944001694220465 Bi
   0.2512624548946562    0.1542778865242641    0.7944001694220465 Bi
   0.7730015853294385    0.1107996256546989    0.7944001694220465 Bi
   0.2947407157642213    0.0673213647851336    0.7944001694220465 Bi
   0.8164798461990037    0.0238431039155684    0.7944001694220465 Bi
   0.3382189766337865    0.9803648430460032    0.7944001694220465 Bi
   0.8599581070685691    0.9368865821764379    0.7944001694220464 Bi
   0.0516375456840444    0.8939308042301530    0.7047369577364244 Bi
   0.5733766761188270    0.8504525433605876    0.7047369577364244 Bi
   0.0951158065536092    0.8069742824910227    0.7047369577364245 Bi
   0.6168549369883922    0.7634960216214574    0.7047369577364244 Bi
   0.1385940674231743    0.7200177607518921    0.7047369577364245 Bi
   0.6603331978579565    0.6765394998823269    0.7047369577364245 Bi
   0.1820723282927390    0.6330612390127617    0.7047369577364245 Bi
   0.7038114587275222    0.5895829781431966    0.7047369577364245 Bi
   0.2255505891623045    0.5461047172736314    0.7047369577364245 Bi
   0.7472897195970873    0.5026264564040662    0.7047369577364245 Bi
   0.2690288500318703    0.4591481955345009    0.7047369577364245 Bi
   0.7907679804666528    0.4156699346649357    0.7047369577364245 Bi
   0.3125071109014353    0.3721916737953705    0.7047369577364245 Bi
   0.8342462413362181    0.3287134129258052    0.7047369577364245 Bi
   0.3559853717710006    0.2852351520562400    0.7047369577364245 Bi
   0.8777245022057830    0.2417568911866748    0.7047369577364245 Bi
   0.3994636326405659    0.1982786303171095    0.7047369577364245 Bi
   0.9212027630753485    0.1548003694475444    0.7047369577364245 Bi
   0.4429418935101311    0.1113221085779792    0.7047369577364245 Bi
   0.9646810239449136    0.0678438477084139    0.7047369577364245 Bi
   0.4864201543796960    0.0243655868388487    0.7047369577364245 Bi
   0.0081592848144788    0.9808873259692835    0.7047369577364245 Bi
   0.5298984152492616    0.9374090650997182    0.7047369577364244 Bi
   0.0485465174028000    0.8952998529546927    0.5688586317166681 Bi
   0.5702856478375822    0.8518215920851274    0.5688586317166681 Bi
   0.0920247782723645    0.8083433312155622    0.5688586317166682 Bi
   0.6137639087071481    0.7648650703459973    0.5688586317166681 Bi
   0.1355030391419305    0.7213868094764319    0.5688586317166682 Bi
   0.6572421695767128    0.6779085486068664    0.5688586317166682 Bi
   0.1789813000114955    0.6344302877373016    0.5688586317166682 Bi
   0.7007204304462775    0.5909520268677364    0.5688586317166682 Bi
   0.2224595608810606    0.5474737659981712    0.5688586317166682 Bi
   0.7441986913158435    0.5039955051286058    0.5688586317166682 Bi
   0.2659378217506260    0.4605172442590407    0.5688586317166681 Bi
   0.7876769521854086    0.4170389833894755    0.5688586317166681 Bi
   0.3094160826201910    0.3735607225199101    0.5688586317166681 Bi
   0.8311552130549739    0.3300824616503449    0.5688586317166681 Bi
   0.3528943434897567    0.2866042007807797    0.5688586317166681 Bi
   0.8746334739245387    0.2431259399112145    0.5688586317166681 Bi
   0.3963726043593213    0.1996476790416493    0.5688586317166681 Bi
   0.9181117347941044    0.1561694181720841    0.5688586317166681 Bi
   0.4398508652288867    0.1126911573025189    0.5688586317166681 Bi
   0.9615899956636693    0.0692128964329537    0.5688586317166681 Bi
   0.4833291260984519    0.0257346355633884    0.5688586317166681 Bi
   0.0050682565332345    0.9822563746938232    0.5688586317166681 Bi
   0.5268073869680174    0.9387781138242580    0.5688586317166681 Bi
   0.7181691305819218    0.8953342386097510    0.4795310425214356 Bi
   0.2399082610167047    0.8518559777401858    0.4795310425214356 Bi
   0.7616473914514872    0.8083777168706207    0.4795310425214356 Bi
   0.2833865218862701    0.7648994560010555    0.4795310425214356 Bi
   0.8051256523210526    0.7214211951314901    0.4795310425214356 Bi
   0.3268647827558349    0.6779429342619249    0.4795310425214356 Bi
   0.8486039131906170    0.6344646733923597    0.4795310425214356 Bi
   0.3703430436253999    0.5909864125227944    0.4795310425214356 Bi
   0.8920821740601821    0.5475081516532293    0.4795310425214355 Bi
   0.4138213044949653    0.5040298907836641    0.4795310425214356 Bi
   0.9355604349297477    0.4605516299140990    0.4795310425214355 Bi
   0.4572995653645301    0.4170733690445337    0.4795310425214355 Bi
   0.9790386957993129    0.3735951081749685    0.4795310425214356 Bi
   0.5007778262340957    0.3301168473054032    0.4795310425214356 Bi
   0.0225169566688782    0.2866385864358381    0.4795310425214356 Bi
   0.5442560871036607    0.2431603255662729    0.4795310425214356 Bi
   0.0659952175384430    0.1996820646967077    0.4795310425214356 Bi
   0.5877343479732262    0.1562038038271424    0.4795310425214356 Bi
   0.1094734784080085    0.1127255429575772    0.4795310425214356 Bi
   0.6312126088427913    0.0692472820880120    0.4795310425214356 Bi
   0.1529517392775737    0.0257690212184468    0.4795310425214356 Bi
   0.6746908697123561    0.9822907603488815    0.4795310425214356 Bi
   0.1964300001471393    0.9388124994793162    0.4795310425214356 Bi
   0.6592838437269171    0.8883068360020854    0.1686817922364798 Se
   0.1592838437269160    0.8883068360020854    0.1686817922364798 Se
   0.4405338437269168    0.8258068360020854    0.1686817922364798 Se
   0.9405338437269168    0.8258068360020854    0.1686817922364797 Se
   0.7217838437269168    0.7633068360020853    0.1686817922364798 Se
   0.2217838437269160    0.7633068360020856    0.1686817922364797 Se
   0.5030338437269165    0.7008068360020853    0.1686817922364797 Se
   0.0030338437269170    0.7008068360020853    0.1686817922364797 Se
   0.7842838437269160    0.6383068360020853    0.1686817922364797 Se
   0.2842838437269166    0.6383068360020853    0.1686817922364797 Se
   0.5655338437269170    0.5758068360020854    0.1686817922364797 Se
   0.0655338437269165    0.5758068360020854    0.1686817922364798 Se
   0.8467838437269168    0.5133068360020853    0.1686817922364798 Se
   0.3467838437269167    0.5133068360020853    0.1686817922364798 Se
   0.6280338437269167    0.4508068360020853    0.1686817922364798 Se
   0.1280338437269174    0.4508068360020853    0.1686817922364798 Se
   0.4092838437269174    0.3883068360020854    0.1686817922364798 Se
   0.9092838437269165    0.3883068360020854    0.1686817922364798 Se
   0.6905338437269173    0.3258068360020854    0.1686817922364798 Se
   0.1905338437269167    0.3258068360020854    0.1686817922364798 Se
   0.4717838437269170    0.2633068360020853    0.1686817922364798 Se
   0.9717838437269171    0.2633068360020853    0.1686817922364798 Se
   0.7530338437269172    0.2008068360020853    0.1686817922364798 Se
   0.2530338437269172    0.2008068360020853    0.1686817922364797 Se
   0.5342838437269173    0.1383068360020853    0.1686817922364797 Se
   0.0342838437269173    0.1383068360020853    0.1686817922364798 Se
   0.8155338437269176    0.0758068360020853    0.1686817922364798 Se
   0.3155338437269173    0.0758068360020853    0.1686817922364798 Se
   0.5967838437269173    0.0133068360020853    0.1686817922364798 Se
   0.0967838437269173    0.0133068360020853    0.1686817922364798 Se
   0.3780338437269166    0.9508068360020854    0.1686817922364798 Se
   0.8780338437269168    0.9508068360020853    0.1686817922364798 Se
   0.3988797653450086    0.9093484286041887    0.3069115334886654 Se
   0.8988797653450080    0.9093484286041887    0.3069115334886654 Se
   0.1801297653450086    0.8468484286041889    0.3069115334886654 Se
   0.6801297653450076    0.8468484286041891    0.3069115334886654 Se
   0.4613797653450081    0.7843484286041889    0.3069115334886653 Se
   0.9613797653450082    0.7843484286041889    0.3069115334886653 Se
   0.2426297653450081    0.7218484286041890    0.3069115334886653 Se
   0.7426297653450085    0.7218484286041890    0.3069115334886653 Se
   0.5238797653450087    0.6593484286041887    0.3069115334886653 Se
   0.0238797653450086    0.6593484286041887    0.3069115334886653 Se
   0.3051297653450084    0.5968484286041886    0.3069115334886653 Se
   0.8051297653450086    0.5968484286041889    0.3069115334886653 Se
   0.5863797653450082    0.5343484286041887    0.3069115334886653 Se
   0.0863797653450085    0.5343484286041887    0.3069115334886653 Se
   0.3676297653450086    0.4718484286041888    0.3069115334886653 Se
   0.8676297653450091    0.4718484286041887    0.3069115334886653 Se
   0.1488797653450090    0.4093484286041887    0.3069115334886653 Se
   0.6488797653450091    0.4093484286041888    0.3069115334886653 Se
   0.4301297653450092    0.3468484286041888    0.3069115334886654 Se
   0.9301297653450091    0.3468484286041888    0.3069115334886654 Se
   0.2113797653450089    0.2843484286041889    0.3069115334886654 Se
   0.7113797653450091    0.2843484286041887    0.3069115334886654 Se
   0.4926297653450093    0.2218484286041888    0.3069115334886654 Se
   0.9926297653450092    0.2218484286041888    0.3069115334886653 Se
   0.2738797653450094    0.1593484286041888    0.3069115334886653 Se
   0.7738797653450094    0.1593484286041888    0.3069115334886654 Se
   0.5551297653450098    0.0968484286041888    0.3069115334886653 Se
   0.0551297653450093    0.0968484286041888    0.3069115334886653 Se
   0.3363797653450096    0.0343484286041888    0.3069115334886653 Se
   0.8363797653450094    0.0343484286041888    0.3069115334886653 Se
   0.1176297653450085    0.9718484286041890    0.3069115334886654 Se
   0.6176297653450090    0.9718484286041887    0.3069115334886654 Se
   0.6592287287882057    0.8883283261852369    0.2443510399711945 Se
   0.1592287287882062    0.8883283261852369    0.2443510399711945 Se
   0.4404787287882062    0.8258283261852368    0.2443510399711945 Se
   0.9404787287882054    0.8258283261852369    0.2443510399711945 Se
   0.7217287287882056    0.7633283261852367    0.2443510399711945 Se
   0.2217287287882063    0.7633283261852367    0.2443510399711945 Se
   0.5029787287882058    0.7008283261852370    0.2443510399711945 Se
   0.0029787287882058    0.7008283261852367    0.2443510399711945 Se
   0.7842287287882062    0.6383283261852370    0.2443510399711945 Se
   0.2842287287882053    0.6383283261852368    0.2443510399711945 Se
   0.5654787287882057    0.5758283261852369    0.2443510399711945 Se
   0.0654787287882054    0.5758283261852369    0.2443510399711945 Se
   0.8467287287882055    0.5133283261852368    0.2443510399711945 Se
   0.3467287287882056    0.5133283261852368    0.2443510399711945 Se
   0.6279787287882055    0.4508283261852369    0.2443510399711945 Se
   0.1279787287882062    0.4508283261852369    0.2443510399711945 Se
   0.4092287287882063    0.3883283261852369    0.2443510399711945 Se
   0.9092287287882062    0.3883283261852368    0.2443510399711945 Se
   0.6904787287882064    0.3258283261852368    0.2443510399711945 Se
   0.1904787287882060    0.3258283261852369    0.2443510399711945 Se
   0.4717287287882060    0.2633283261852368    0.2443510399711945 Se
   0.9717287287882059    0.2633283261852369    0.2443510399711945 Se
   0.7529787287882063    0.2008283261852368    0.2443510399711945 Se
   0.2529787287882059    0.2008283261852368    0.2443510399711945 Se
   0.5342287287882062    0.1383283261852368    0.2443510399711945 Se
   0.0342287287882064    0.1383283261852369    0.2443510399711945 Se
   0.8154787287882065    0.0758283261852369    0.2443510399711945 Se
   0.3154787287882063    0.0758283261852369    0.2443510399711945 Se
   0.5967287287882064    0.0133283261852368    0.2443510399711945 Se
   0.0967287287882065    0.0133283261852368    0.2443510399711945 Se
   0.3779787287882062    0.9508283261852368    0.2443510399711945 Se
   0.8779787287882066    0.9508283261852367    0.2443510399711945 Se
   0.3988021016714265    0.9093681825534358    0.3825808312104176 Se
   0.8988021016714256    0.9093681825534358    0.3825808312104176 Se
   0.1800521016714261    0.8468681825534357    0.3825808312104176 Se
   0.6800521016714265    0.8468681825534357    0.3825808312104176 Se
   0.4613021016714269    0.7843681825534358    0.3825808312104176 Se
   0.9613021016714265    0.7843681825534358    0.3825808312104176 Se
   0.2425521016714265    0.7218681825534357    0.3825808312104176 Se
   0.7425521016714272    0.7218681825534359    0.3825808312104176 Se
   0.5238021016714267    0.6593681825534358    0.3825808312104176 Se
   0.0238021016714271    0.6593681825534355    0.3825808312104176 Se
   0.3050521016714270    0.5968681825534355    0.3825808312104176 Se
   0.8050521016714258    0.5968681825534358    0.3825808312104176 Se
   0.5863021016714269    0.5343681825534357    0.3825808312104176 Se
   0.0863021016714263    0.5343681825534355    0.3825808312104175 Se
   0.3675521016714261    0.4718681825534357    0.3825808312104175 Se
   0.8675521016714265    0.4718681825534357    0.3825808312104175 Se
   0.1488021016714266    0.4093681825534356    0.3825808312104175 Se
   0.6488021016714266    0.4093681825534356    0.3825808312104175 Se
   0.4300521016714266    0.3468681825534355    0.3825808312104175 Se
   0.9300521016714266    0.3468681825534355    0.3825808312104175 Se
   0.2113021016714265    0.2843681825534356    0.3825808312104175 Se
   0.7113021016714269    0.2843681825534356    0.3825808312104175 Se
   0.4925521016714267    0.2218681825534357    0.3825808312104175 Se
   0.9925521016714269    0.2218681825534357    0.3825808312104175 Se
   0.2738021016714269    0.1593681825534357    0.3825808312104175 Se
   0.7738021016714268    0.1593681825534357    0.3825808312104175 Se
   0.5550521016714273    0.0968681825534356    0.3825808312104175 Se
   0.0550521016714270    0.0968681825534356    0.3825808312104175 Se
   0.3363021016714273    0.0343681825534356    0.3825808312104175 Se
   0.8363021016714269    0.0343681825534356    0.3825808312104175 Se
   0.1175521016714265    0.9718681825534355    0.3825808312104176 Se
   0.6175521016714267    0.9718681825534355    0.3825808312104176 Se
   0.0466865592764906    0.8934184758358791    0.8313182077635203 Se
   0.5684256897112727    0.8499402149663139    0.8313182077635203 Se
   0.0901648201460555    0.8064619540967487    0.8313182077635204 Se
   0.6119039505808388    0.7629836932271835    0.8313182077635203 Se
   0.1336430810156218    0.7195054323576183    0.8313182077635204 Se
   0.6553822114504040    0.6760271714880531    0.8313182077635204 Se
   0.1771213418851864    0.6325489106184878    0.8313182077635204 Se
   0.6988604723199690    0.5890706497489229    0.8313182077635204 Se
   0.2205996027547523    0.5455923888793577    0.8313182077635204 Se
   0.7423387331895348    0.5021141280097923    0.8313182077635204 Se
   0.2640778636243168    0.4586358671402270    0.8313182077635204 Se
   0.7858169940591001    0.4151576062706619    0.8313182077635204 Se
   0.3075561244938826    0.3716793454010967    0.8313182077635204 Se
   0.8292952549286651    0.3282010845315314    0.8313182077635204 Se
   0.3510343853634477    0.2847228236619662    0.8313182077635204 Se
   0.8727735157982299    0.2412445627924010    0.8313182077635204 Se
   0.3945126462330128    0.1977663019228357    0.8313182077635204 Se
   0.9162517766677956    0.1542880410532705    0.8313182077635204 Se
   0.4379909071025779    0.1108097801837053    0.8313182077635204 Se
   0.9597300375373605    0.0673315193141401    0.8313182077635204 Se
   0.4814691679721432    0.0238532584445748    0.8313182077635204 Se
   0.0032082984069258    0.9803749975750097    0.8313182077635204 Se
   0.5249474288417086    0.9368967367054445    0.8313182077635203 Se
   0.7184011174282963    0.8935421958896402    0.7495056388254159 Se
   0.2401402478630786    0.8500639350200752    0.7495056388254159 Se
   0.7618793782978606    0.8065856741505097    0.7495056388254159 Se
   0.2836185087326440    0.7631074132809448    0.7495056388254160 Se
   0.8053576391674264    0.7196291524113794    0.7495056388254160 Se
   0.3270967696022090    0.6761508915418141    0.7495056388254160 Se
   0.8488359000369913    0.6326726306722489    0.7495056388254160 Se
   0.3705750304717741    0.5891943698026837    0.7495056388254160 Se
   0.8923141609065564    0.5457161089331185    0.7495056388254160 Se
   0.4140532913413388    0.5022378480635533    0.7495056388254160 Se
   0.9357924217761222    0.4587595871939881    0.7495056388254160 Se
   0.4575315522109045    0.4152813263244229    0.7495056388254160 Se
   0.9792706826456873    0.3718030654548576    0.7495056388254160 Se
   0.5010098130804702    0.3283248045852923    0.7495056388254160 Se
   0.0227489435152524    0.2848465437157272    0.7495056388254160 Se
   0.5444880739500353    0.2413682828461620    0.7495056388254160 Se
   0.0662272043848176    0.1978900219765968    0.7495056388254160 Se
   0.5879663348196004    0.1544117611070316    0.7495056388254160 Se
   0.1097054652543831    0.1109335002374663    0.7495056388254160 Se
   0.6314445956891654    0.0674552393679011    0.7495056388254160 Se
   0.1531837261239480    0.0239769784983359    0.7495056388254160 Se
   0.6749228565587306    0.9804987176287707    0.7495056388254160 Se
   0.1966619869935141    0.9370204567592055    0.7495056388254159 Se
   0.3836535200552403    0.8937264143944049    0.6677845033197067 Se
   0.9053926504900235    0.8502481535248397    0.6677845033197068 Se
   0.4271317809248066    0.8067698926552743    0.6677845033197067 Se
   0.9488709113595888    0.7632916317857094    0.6677845033197068 Se
   0.4706100417943724    0.7198133709161439    0.6677845033197068 Se
   0.9923491722291539    0.6763351100465786    0.6677845033197068 Se
   0.5140883026639367    0.6328568491770136    0.6677845033197068 Se
   0.0358274330987195    0.5893785883074484    0.6677845033197068 Se
   0.5575665635335021    0.5459003274378833    0.6677845033197068 Se
   0.0793056939682849    0.5024220665683181    0.6677845033197067 Se
   0.6010448244030674    0.4589438056987527    0.6677845033197067 Se
   0.1227839548378501    0.4154655448291875    0.6677845033197067 Se
   0.6445230852726325    0.3719872839596223    0.6677845033197067 Se
   0.1662622157074150    0.3285090230900570    0.6677845033197067 Se
   0.6880013461421979    0.2850307622204918    0.6677845033197067 Se
   0.2097404765769799    0.2415525013509267    0.6677845033197067 Se
   0.7314796070117625    0.1980742404813614    0.6677845033197067 Se
   0.2532187374465455    0.1545959796117962    0.6677845033197067 Se
   0.7749578678813278    0.1111177187422310    0.6677845033197067 Se
   0.2966969983161107    0.0676394578726658    0.6677845033197067 Se
   0.8184361287508930    0.0241611970031006    0.6677845033197067 Se
   0.3401752591856758    0.9806829361335354    0.6677845033197067 Se
   0.8619143896204594    0.9372046752639701    0.6677845033197067 Se
   0.7183834719989104    0.8952514966512609    0.6055580957863086 Se
   0.2401226024336929    0.8517732357816957    0.6055580957863086 Se
   0.7618617328684748    0.8082949749121305    0.6055580957863086 Se
   0.2836008633032579    0.7648167140425655    0.6055580957863087 Se
   0.8053399937380407    0.7213384531730000    0.6055580957863087 Se
   0.3270791241728225    0.6778601923034347    0.6055580957863087 Se
   0.8488182546076061    0.6343819314338695    0.6055580957863087 Se
   0.3705573850423884    0.5909036705643043    0.6055580957863087 Se
   0.8922965154771714    0.5474254096947393    0.6055580957863087 Se
   0.4140356459119538    0.5039471488251739    0.6055580957863087 Se
   0.9357747763467363    0.4604688879556088    0.6055580957863087 Se
   0.4575139067815193    0.4169906270860436    0.6055580957863087 Se
   0.9792530372163021    0.3735123662164783    0.6055580957863087 Se
   0.5009921676510842    0.3300341053469131    0.6055580957863087 Se
   0.0227312980858674    0.2865558444773479    0.6055580957863087 Se
   0.5444704285206496    0.2430775836077826    0.6055580957863087 Se
   0.0662095589554323    0.1995993227382174    0.6055580957863087 Se
   0.5879486893902152    0.1561210618686522    0.6055580957863087 Se
   0.1096878198249976    0.1126428009990870    0.6055580957863087 Se
   0.6314269502597800    0.0691645401295218    0.6055580957863087 Se
   0.1531660806945627    0.0256862792599566    0.6055580957863087 Se
   0.6749052111293451    0.9822080183903913    0.6055580957863087 Se
   0.1966443415641279    0.9387297575208261    0.6055580957863086 Se
   0.3825029718232383    0.8954320520947600    0.5241890951556732 Se
   0.9042421022580205    0.8519537912251948    0.5241890951556732 Se
   0.4259812326928020    0.8084755303556296    0.5241890951556732 Se
   0.9477203631275850    0.7649972694860644    0.5241890951556734 Se
   0.4694594935623687    0.7215190086164990    0.5241890951556734 Se
   0.9911986239971505    0.6780407477469338    0.5241890951556734 Se
   0.5129377544319329    0.6345624868773686    0.5241890951556734 Se
   0.0346768848667159    0.5910842260078034    0.5241890951556734 Se
   0.5564160153014982    0.5476059651382382    0.5241890951556734 Se
   0.0781551457362804    0.5041277042686730    0.5241890951556734 Se
   0.5998942761710638    0.4606494433991079    0.5241890951556734 Se
   0.1216334066058463    0.4171711825295426    0.5241890951556734 Se
   0.6433725370406285    0.3736929216599774    0.5241890951556734 Se
   0.1651116674754114    0.3302146607904122    0.5241890951556734 Se
   0.6868507979101939    0.2867363999208469    0.5241890951556734 Se
   0.2085899283449762    0.2432581390512817    0.5241890951556734 Se
   0.7303290587797592    0.1997798781817165    0.5241890951556734 Se
   0.2520681892145416    0.1563016173121513    0.5241890951556734 Se
   0.7738073196493243    0.1128233564425861    0.5241890951556734 Se
   0.2955464500841068    0.0693450955730208    0.5241890951556734 Se
   0.8172855805188892    0.0258668347034556    0.5241890951556734 Se
   0.3390247109536719    0.9823885738338904    0.5241890951556734 Se
   0.8607638413884551    0.9389103129643251    0.5241890951556732 Se
   0.0474765722924289    0.8953110378299910    0.4427015086099987 Se
   0.5692157027272109    0.8518327769604257    0.4427015086099987 Se
   0.0909548331619939    0.8083545160908602    0.4427015086099987 Se
   0.6126939635967772    0.7648762552212952    0.4427015086099987 Se
   0.1344330940315585    0.7213979943517298    0.4427015086099987 Se
   0.6561722244663410    0.6779197334821648    0.4427015086099987 Se
   0.1779113549011238    0.6344414726125995    0.4427015086099987 Se
   0.6996504853359069    0.5909632117430343    0.4427015086099987 Se
   0.2213896157706887    0.5474849508734692    0.4427015086099987 Se
   0.7431287462054721    0.5040066900039040    0.4427015086099987 Se
   0.2648678766402547    0.4605284291343387    0.4427015086099987 Se
   0.7866070070750372    0.4170501682647734    0.4427015086099987 Se
   0.3083461375098203    0.3735719073952082    0.4427015086099987 Se
   0.8300852679446028    0.3300936465256430    0.4427015086099987 Se
   0.3518243983793852    0.2866153856560778    0.4427015086099987 Se
   0.8735635288141678    0.2431371247865126    0.4427015086099987 Se
   0.3953026592489505    0.1996588639169474    0.4427015086099987 Se
   0.9170417896837331    0.1561806030473822    0.4427015086099987 Se
   0.4387809201185157    0.1127023421778169    0.4427015086099987 Se
   0.9605200505532981    0.0692240813082517    0.4427015086099987 Se
   0.4822591809880808    0.0257458204386865    0.4427015086099987 Se
   0.0039983114228634    0.9822675595691213    0.4427015086099987 Se
   0.5257374418576464    0.9387892986995562    0.4427015086099987 Se
