Nb162 Bi224 Se660
1.0
  15.0973550219618300    0.0000000000000000    0.0000000000000009
   0.3972988129526088   55.7394805935300752    0.0000000000000034
   0.0000000000000000    0.0000000000000000   49.9893053307188922
Nb Bi Se
162 224 660
direct
   0.0740139304463842    0.5292723270084051    0.3566429020965913 Nb
   0.0987052884710752    0.5910007220701334    0.3566429020965913 Nb
   0.1233966464957669    0.6527291171318619    0.3566429020965913 Nb
   0.1480880045204586    0.7144575121935903    0.3566429020965913 Nb
   0.1727793625451499    0.7761859072553187    0.3566429020965913 Nb
   0.1974707205698409    0.8379143023170471    0.3566429020965913 Nb
   0.2221620785945325    0.8996426973787756    0.3566429020965913 Nb
   0.2468534366192235    0.9613710924405039    0.3566429020965913 Nb
   0.0616682514340384    0.9984081294775408    0.3566429020965913 Nb
   0.0863596094587298    0.0601365245392692    0.3566429020965913 Nb
   0.1110509674834211    0.1218649196009976    0.3566429020965913 Nb
   0.1357423255081125    0.1835933146627260    0.3566429020965913 Nb
   0.1604336835328038    0.2453217097244544    0.3566429020965913 Nb
   0.1851250415574952    0.3070501047861828    0.3566429020965913 Nb
   0.2098163995821866    0.3687784998479112    0.3566429020965913 Nb
   0.2345077576068781    0.4305068949096396    0.3566429020965913 Nb
   0.2591991156315694    0.4922352899713680    0.3566429020965913 Nb
   0.2838904736562607    0.5539636850330962    0.3566429020965913 Nb
   0.3085818316809522    0.6156920800948249    0.3566429020965913 Nb
   0.3332731897056435    0.6774204751565532    0.3566429020965913 Nb
   0.3579645477303348    0.7391488702182817    0.3566429020965913 Nb
   0.3826559057550263    0.8008772652800100    0.3566429020965913 Nb
   0.4073472637797176    0.8626056603417385    0.3566429020965913 Nb
   0.4320386218044089    0.9243340554034668    0.3566429020965913 Nb
   0.4567299798291005    0.9860624504651954    0.3566429020965913 Nb
   0.2715447946439150    0.0230994875022322    0.3566429020965913 Nb
   0.2962361526686064    0.0848278825639606    0.3566429020965913 Nb
   0.3209275106932977    0.1465562776256890    0.3566429020965913 Nb
   0.3456188687179891    0.2082846726874174    0.3566429020965913 Nb
   0.3703102267426805    0.2700130677491458    0.3566429020965913 Nb
   0.3950015847673718    0.3317414628108742    0.3566429020965913 Nb
   0.4196929427920633    0.3934698578726026    0.3566429020965913 Nb
   0.4443843008167547    0.4551982529343310    0.3566429020965913 Nb
   0.4690756588414459    0.5169266479960594    0.3566429020965913 Nb
   0.4937670168661376    0.5786550430577878    0.3566429020965913 Nb
   0.5184583748908291    0.6403834381195163    0.3566429020965913 Nb
   0.5431497329155202    0.7021118331812446    0.3566429020965913 Nb
   0.5678410909402112    0.7638402282429730    0.3566429020965913 Nb
   0.5925324489649029    0.8255686233047014    0.3566429020965913 Nb
   0.6172238069895940    0.8872970183664298    0.3566429020965913 Nb
   0.6419151650142857    0.9490254134281580    0.3566429020965913 Nb
   0.4814213378537916    0.0477908455269235    0.3566429020965913 Nb
   0.5061126958784827    0.1095192405886519    0.3566429020965913 Nb
   0.5308040539031743    0.1712476356503803    0.3566429020965913 Nb
   0.5554954119278657    0.2329760307121088    0.3566429020965913 Nb
   0.5801867699525569    0.2947044257738371    0.3566429020965913 Nb
   0.6048781279772484    0.3564328208355655    0.3566429020965913 Nb
   0.6295694860019398    0.4181612158972939    0.3566429020965913 Nb
   0.6542608440266312    0.4798896109590223    0.3566429020965913 Nb
   0.6789522020513225    0.5416180060207507    0.3566429020965913 Nb
   0.7036435600760137    0.6033464010824792    0.3566429020965913 Nb
   0.7283349181007053    0.6650747961442076    0.3566429020965913 Nb
   0.7530262761253967    0.7268031912059360    0.3566429020965913 Nb
   0.7777176341500881    0.7885315862676644    0.3566429020965913 Nb
   0.8024089921747793    0.8502599813293927    0.3566429020965913 Nb
   0.8271003501994707    0.9119883763911212    0.3566429020965913 Nb
   0.8517917082241622    0.9737167714528495    0.3566429020965913 Nb
   0.6666065230389768    0.0107538084898865    0.3566429020965913 Nb
   0.6912978810636681    0.0724822035516149    0.3566429020965913 Nb
   0.7159892390883594    0.1342105986133433    0.3566429020965913 Nb
   0.7406805971130508    0.1959389936750717    0.3566429020965913 Nb
   0.7653719551377421    0.2576673887368001    0.3566429020965913 Nb
   0.7900633131624335    0.3193957837985284    0.3566429020965913 Nb
   0.8147546711871249    0.3811241788602569    0.3566429020965913 Nb
   0.8394460292118164    0.4428525739219854    0.3566429020965913 Nb
   0.8641373872365079    0.5045809689837137    0.3566429020965913 Nb
   0.8888287452611990    0.5663093640454421    0.3566429020965913 Nb
   0.9135201032858908    0.6280377591071705    0.3566429020965913 Nb
   0.9382114613105822    0.6897661541688989    0.3566429020965913 Nb
   0.9629028193352729    0.7514945492306271    0.3566429020965913 Nb
   0.9875941773599646    0.8132229442923556    0.3566429020965913 Nb
   0.0122855353846558    0.8749513393540842    0.3566429020965913 Nb
   0.0369768934093471    0.9366797344158124    0.3566429020965913 Nb
   0.8764830662488535    0.0354451665145779    0.3566429020965913 Nb
   0.9011744242735448    0.0971735615763063    0.3566429020965913 Nb
   0.9258657822982362    0.1589019566380346    0.3566429020965913 Nb
   0.9505571403229273    0.2206303516997630    0.3566429020965913 Nb
   0.9752484983476187    0.2823587467614914    0.3566429020965913 Nb
   0.9999398563723101    0.3440871418232198    0.3566429020965913 Nb
   0.0246312143970014    0.4058155368849483    0.3566429020965913 Nb
   0.0493225724216931    0.4675439319466767    0.3566429020965913 Nb
   0.0746634162627120    0.5292697658761697    0.2336917587878816 Nb
   0.0993547742874031    0.5909981609378981    0.2336917587878816 Nb
   0.1240461323120946    0.6527265559996265    0.2336917587878816 Nb
   0.1487374903367860    0.7144549510613550    0.2336917587878816 Nb
   0.1734288483614774    0.7761833461230833    0.2336917587878816 Nb
   0.1981202063861685    0.8379117411848118    0.2336917587878816 Nb
   0.2228115644108603    0.8996401362465402    0.2336917587878816 Nb
   0.2475029224355511    0.9613685313082684    0.2336917587878816 Nb
   0.0623177372503660    0.9984055683453055    0.2336917587878816 Nb
   0.0870090952750574    0.0601339634070339    0.2336917587878816 Nb
   0.1117004532997488    0.1218623584687623    0.2336917587878816 Nb
   0.1363918113244401    0.1835907535304907    0.2336917587878816 Nb
   0.1610831693491315    0.2453191485922191    0.2336917587878816 Nb
   0.1857745273738229    0.3070475436539475    0.2336917587878816 Nb
   0.2104658853985143    0.3687759387156759    0.2336917587878816 Nb
   0.2351572434232057    0.4305043337774043    0.2336917587878816 Nb
   0.2598486014478970    0.4922327288391327    0.2336917587878816 Nb
   0.2845399594725885    0.5539611239008611    0.2336917587878816 Nb
   0.3092313174972798    0.6156895189625895    0.2336917587878816 Nb
   0.3339226755219710    0.6774179140243178    0.2336917587878816 Nb
   0.3586140335466626    0.7391463090860463    0.2336917587878816 Nb
   0.3833053915713539    0.8008747041477746    0.2336917587878816 Nb
   0.4079967495960451    0.8626030992095031    0.2336917587878816 Nb
   0.4326881076207366    0.9243314942712314    0.2336917587878816 Nb
   0.4573794656454280    0.9860598893329600    0.2336917587878816 Nb
   0.2721942804602426    0.0230969263699968    0.2336917587878816 Nb
   0.2968856384849339    0.0848253214317252    0.2336917587878816 Nb
   0.3215769965096254    0.1465537164934537    0.2336917587878816 Nb
   0.3462683545343168    0.2082821115551821    0.2336917587878816 Nb
   0.3709597125590081    0.2700105066169104    0.2336917587878816 Nb
   0.3956510705836995    0.3317389016786388    0.2336917587878816 Nb
   0.4203424286083909    0.3934672967403672    0.2336917587878816 Nb
   0.4450337866330824    0.4551956918020957    0.2336917587878816 Nb
   0.4697251446577735    0.5169240868638241    0.2336917587878816 Nb
   0.4944165026824651    0.5786524819255524    0.2336917587878816 Nb
   0.5191078607071562    0.6403808769872810    0.2336917587878816 Nb
   0.5437992187318479    0.7021092720490092    0.2336917587878816 Nb
   0.5684905767565389    0.7638376671107376    0.2336917587878816 Nb
   0.5931819347812306    0.8255660621724660    0.2336917587878816 Nb
   0.6178732928059216    0.8872944572341944    0.2336917587878816 Nb
   0.6425646508306132    0.9490228522959228    0.2336917587878816 Nb
   0.4820708236701191    0.0477882843946882    0.2336917587878816 Nb
   0.5067621816948106    0.1095166794564166    0.2336917587878816 Nb
   0.5314535397195019    0.1712450745181450    0.2336917587878816 Nb
   0.5561448977441933    0.2329734695798734    0.2336917587878816 Nb
   0.5808362557688846    0.2947018646416018    0.2336917587878816 Nb
   0.6055276137935760    0.3564302597033303    0.2336917587878816 Nb
   0.6302189718182676    0.4181586547650586    0.2336917587878816 Nb
   0.6549103298429588    0.4798870498267870    0.2336917587878816 Nb
   0.6796016878676500    0.5416154448885153    0.2336917587878816 Nb
   0.7042930458923415    0.6033438399502438    0.2336917587878816 Nb
   0.7289844039170328    0.6650722350119722    0.2336917587878816 Nb
   0.7536757619417245    0.7268006300737005    0.2336917587878816 Nb
   0.7783671199664159    0.7885290251354290    0.2336917587878816 Nb
   0.8030584779911072    0.8502574201971573    0.2336917587878816 Nb
   0.8277498360157985    0.9119858152588858    0.2336917587878816 Nb
   0.8524411940404901    0.9737142103206141    0.2336917587878816 Nb
   0.6672560088553044    0.0107512473576512    0.2336917587878816 Nb
   0.6919473668799957    0.0724796424193796    0.2336917587878816 Nb
   0.7166387249046871    0.1342080374811080    0.2336917587878816 Nb
   0.7413300829293784    0.1959364325428364    0.2336917587878816 Nb
   0.7660214409540698    0.2576648276045647    0.2336917587878816 Nb
   0.7907127989787611    0.3193932226662931    0.2336917587878816 Nb
   0.8154041570034527    0.3811216177280217    0.2336917587878816 Nb
   0.8400955150281439    0.4428500127897500    0.2336917587878816 Nb
   0.8647868730528354    0.5045784078514786    0.2336917587878816 Nb
   0.8894782310775268    0.5663068029132067    0.2336917587878816 Nb
   0.9141695891022183    0.6280351979749351    0.2336917587878816 Nb
   0.9388609471269093    0.6897635930366636    0.2336917587878816 Nb
   0.9635523051516006    0.7514919880983919    0.2336917587878816 Nb
   0.9882436631762921    0.8132203831601204    0.2336917587878816 Nb
   0.0129350212009832    0.8749487782218487    0.2336917587878816 Nb
   0.0376263792256749    0.9366771732835771    0.2336917587878816 Nb
   0.8771325520651811    0.0354426053823425    0.2336917587878816 Nb
   0.9018239100898724    0.0971710004440709    0.2336917587878816 Nb
   0.9265152681145635    0.1588993955057993    0.2336917587878816 Nb
   0.9512066261392550    0.2206277905675277    0.2336917587878816 Nb
   0.9758979841639462    0.2823561856292561    0.2336917587878816 Nb
   0.0005893421886377    0.3440845806909845    0.2336917587878816 Nb
   0.0252807002133292    0.4058129757527130    0.2336917587878816 Nb
   0.0499720582380207    0.4675413708144414    0.2336917587878816 Nb
   0.3128019693052305    0.8819497957098079    0.7671208852038272 Bi
   0.5806591121623733    0.8998069385669507    0.7671208852038270 Bi
   0.8485162550195162    0.9176640814240935    0.7671208852038270 Bi
   0.2413733978766588    0.8105212242812360    0.7671208852038269 Bi
   0.5092305407338018    0.8283783671383791    0.7671208852038272 Bi
   0.7770876835909447    0.8462355099955219    0.7671208852038270 Bi
   0.0449448264480875    0.8640926528526649    0.7671208852038269 Bi
   0.1699448264480876    0.7390926528526647    0.7671208852038269 Bi
   0.4378019693052304    0.7569497957098076    0.7671208852038269 Bi
   0.7056591121623733    0.7748069385669504    0.7671208852038272 Bi
   0.9735162550195159    0.7926640814240933    0.7671208852038269 Bi
   0.3663733978766593    0.6855212242812364    0.7671208852038269 Bi
   0.6342305407338018    0.7033783671383790    0.7671208852038269 Bi
   0.9020876835909449    0.7212355099955222    0.7671208852038272 Bi
   0.2949448264480875    0.6140926528526647    0.7671208852038269 Bi
   0.5628019693052305    0.6319497957098076    0.7671208852038269 Bi
   0.8306591121623732    0.6498069385669505    0.7671208852038269 Bi
   0.0985162550195159    0.6676640814240934    0.7671208852038269 Bi
   0.2235162550195162    0.5426640814240934    0.7671208852038269 Bi
   0.4913733978766590    0.5605212242812362    0.7671208852038269 Bi
   0.7592305407338017    0.5783783671383791    0.7671208852038269 Bi
   0.0270876835909445    0.5962355099955220    0.7671208852038269 Bi
   0.1520876835909448    0.4712355099955220    0.7671208852038270 Bi
   0.4199448264480875    0.4890926528526646    0.7671208852038269 Bi
   0.6878019693052303    0.5069497957098077    0.7671208852038269 Bi
   0.9556591121623730    0.5248069385669505    0.7671208852038270 Bi
   0.3485162550195163    0.4176640814240933    0.7671208852038270 Bi
   0.6163733978766590    0.4355212242812362    0.7671208852038269 Bi
   0.8842305407338020    0.4533783671383790    0.7671208852038269 Bi
   0.2770876835909448    0.3462355099955219    0.7671208852038270 Bi
   0.5449448264480875    0.3640926528526648    0.7671208852038270 Bi
   0.8128019693052304    0.3819497957098075    0.7671208852038269 Bi
   0.0806591121623733    0.3998069385669504    0.7671208852038270 Bi
   0.2056591121623733    0.2748069385669504    0.7671208852038270 Bi
   0.4735162550195161    0.2926640814240933    0.7671208852038270 Bi
   0.7413733978766592    0.3105212242812361    0.7671208852038270 Bi
   0.0092305407338019    0.3283783671383790    0.7671208852038270 Bi
   0.1342305407338019    0.2033783671383790    0.7671208852038270 Bi
   0.4020876835909448    0.2212355099955219    0.7671208852038270 Bi
   0.6699448264480875    0.2390926528526646    0.7671208852038270 Bi
   0.9378019693052305    0.2569497957098076    0.7671208852038270 Bi
   0.3306591121623733    0.1498069385669503    0.7671208852038270 Bi
   0.5985162550195160    0.1676640814240933    0.7671208852038270 Bi
   0.8663733978766590    0.1855212242812361    0.7671208852038270 Bi
   0.2592305407338019    0.0783783671383790    0.7671208852038270 Bi
   0.5270876835909446    0.0962355099955218    0.7671208852038270 Bi
   0.7949448264480876    0.1140926528526646    0.7671208852038270 Bi
   0.0628019693052303    0.1319497957098076    0.7671208852038270 Bi
   0.1878019693052305    0.0069497957098075    0.7671208852038270 Bi
   0.4556591121623732    0.0248069385669504    0.7671208852038270 Bi
   0.7235162550195163    0.0426640814240932    0.7671208852038270 Bi
   0.9913733978766591    0.0605212242812361    0.7671208852038270 Bi
   0.1163733978766591    0.9355212242812363    0.7671208852038272 Bi
   0.3842305407338018    0.9533783671383790    0.7671208852038270 Bi
   0.6520876835909446    0.9712355099955219    0.7671208852038270 Bi
   0.9199448264480876    0.9890926528526646    0.7671208852038270 Bi
   0.2711543863303977    0.9242539637288226    0.6873709670584139 Bi
   0.5390115291875405    0.9421111065859656    0.6873709670584139 Bi
   0.8068686720446835    0.9599682494431083    0.6873709670584139 Bi
   0.1997258149018261    0.8528253923002510    0.6873709670584139 Bi
   0.4675829577589690    0.8706825351573940    0.6873709670584139 Bi
   0.7354401006161115    0.8885396780145369    0.6873709670584139 Bi
   0.0032972434732547    0.9063968208716798    0.6873709670584139 Bi
   0.1282972434732549    0.7813968208716796    0.6873709670584139 Bi
   0.3961543863303975    0.7992539637288224    0.6873709670584139 Bi
   0.6640115291875405    0.8171111065859653    0.6873709670584139 Bi
   0.9318686720446833    0.8349682494431082    0.6873709670584139 Bi
   0.3247258149018263    0.7278253923002512    0.6873709670584139 Bi
   0.5925829577589692    0.7456825351573939    0.6873709670584139 Bi
   0.8604401006161120    0.7635396780145369    0.6873709670584139 Bi
   0.2532972434732548    0.6563968208716797    0.6873709670584139 Bi
   0.5211543863303977    0.6742539637288224    0.6873709670584139 Bi
   0.7890115291875405    0.6921111065859654    0.6873709670584139 Bi
   0.0568686720446833    0.7099682494431083    0.6873709670584139 Bi
   0.1818686720446833    0.5849682494431083    0.6873709670584139 Bi
   0.4497258149018260    0.6028253923002510    0.6873709670584139 Bi
   0.7175829577589690    0.6206825351573940    0.6873709670584139 Bi
   0.9854401006161120    0.6385396780145369    0.6873709670584139 Bi
   0.1104401006161119    0.5135396780145368    0.6873709670584139 Bi
   0.3782972434732546    0.5313968208716794    0.6873709670584139 Bi
   0.6461543863303975    0.5492539637288226    0.6873709670584139 Bi
   0.9140115291875403    0.5671111065859654    0.6873709670584139 Bi
   0.3068686720446833    0.4599682494431082    0.6873709670584139 Bi
   0.5747258149018259    0.4778253923002511    0.6873709670584139 Bi
   0.8425829577589689    0.4956825351573938    0.6873709670584139 Bi
   0.2354401006161118    0.3885396780145368    0.6873709670584138 Bi
   0.5032972434732547    0.4063968208716796    0.6873709670584139 Bi
   0.7711543863303975    0.4242539637288224    0.6873709670584139 Bi
   0.0390115291875402    0.4421111065859652    0.6873709670584138 Bi
   0.1640115291875404    0.3171111065859652    0.6873709670584138 Bi
   0.4318686720446833    0.3349682494431082    0.6873709670584138 Bi
   0.6997258149018261    0.3528253923002510    0.6873709670584139 Bi
   0.9675829577589689    0.3706825351573939    0.6873709670584138 Bi
   0.0925829577589690    0.2456825351573939    0.6873709670584138 Bi
   0.3604401006161118    0.2635396780145367    0.6873709670584138 Bi
   0.6282972434732547    0.2813968208716795    0.6873709670584138 Bi
   0.8961543863303972    0.2992539637288223    0.6873709670584139 Bi
   0.2890115291875404    0.1921111065859652    0.6873709670584138 Bi
   0.5568686720446832    0.2099682494431081    0.6873709670584138 Bi
   0.8247258149018259    0.2278253923002510    0.6873709670584138 Bi
   0.2175829577589690    0.1206825351573938    0.6873709670584138 Bi
   0.4854401006161118    0.1385396780145367    0.6873709670584138 Bi
   0.7532972434732546    0.1563968208716795    0.6873709670584138 Bi
   0.0211543863303974    0.1742539637288224    0.6873709670584138 Bi
   0.1461543863303975    0.0492539637288223    0.6873709670584138 Bi
   0.4140115291875404    0.0671111065859652    0.6873709670584138 Bi
   0.6818686720446833    0.0849682494431081    0.6873709670584138 Bi
   0.9497258149018263    0.1028253923002510    0.6873709670584138 Bi
   0.0747258149018261    0.9778253923002509    0.6873709670584139 Bi
   0.3425829577589690    0.9956825351573938    0.6873709670584138 Bi
   0.6104401006161115    0.0135396780145366    0.6873709670584138 Bi
   0.8782972434732548    0.0313968208716795    0.6873709670584138 Bi
   0.2672453106497765    0.9248825291109967    0.5665155440360311 Bi
   0.5351024535069192    0.9427396719681397    0.5665155440360311 Bi
   0.8029595963640620    0.9605968148252824    0.5665155440360311 Bi
   0.1958167392212050    0.8534539576824249    0.5665155440360311 Bi
   0.4636738820783476    0.8713111005395681    0.5665155440360311 Bi
   0.7315310249354905    0.8891682433967109    0.5665155440360311 Bi
   0.9993881677926334    0.9070253862538539    0.5665155440360311 Bi
   0.1243881677926335    0.7820253862538536    0.5665155440360311 Bi
   0.3922453106497762    0.7998825291109966    0.5665155440360311 Bi
   0.6601024535069193    0.8177396719681393    0.5665155440360311 Bi
   0.9279595963640619    0.8355968148252823    0.5665155440360311 Bi
   0.3208167392212050    0.7284539576824253    0.5665155440360311 Bi
   0.5886738820783478    0.7463111005395680    0.5665155440360311 Bi
   0.8565310249354906    0.7641682433967109    0.5665155440360311 Bi
   0.2493881677926336    0.6570253862538540    0.5665155440360311 Bi
   0.5172453106497762    0.6748825291109963    0.5665155440360311 Bi
   0.7851024535069192    0.6927396719681393    0.5665155440360311 Bi
   0.0529595963640620    0.7105968148252823    0.5665155440360311 Bi
   0.1779595963640620    0.5855968148252824    0.5665155440360310 Bi
   0.4458167392212047    0.6034539576824248    0.5665155440360311 Bi
   0.7136738820783478    0.6213111005395682    0.5665155440360311 Bi
   0.9815310249354904    0.6391682433967109    0.5665155440360310 Bi
   0.1065310249354907    0.5141682433967110    0.5665155440360311 Bi
   0.3743881677926334    0.5320253862538535    0.5665155440360310 Bi
   0.6422453106497761    0.5498825291109967    0.5665155440360311 Bi
   0.9101024535069190    0.5677396719681395    0.5665155440360311 Bi
   0.3029595963640622    0.4605968148252823    0.5665155440360311 Bi
   0.5708167392212049    0.4784539576824252    0.5665155440360310 Bi
   0.8386738820783478    0.4963111005395680    0.5665155440360311 Bi
   0.2315310249354906    0.3891682433967108    0.5665155440360311 Bi
   0.4993881677926334    0.4070253862538536    0.5665155440360311 Bi
   0.7672453106497764    0.4248825291109965    0.5665155440360310 Bi
   0.0351024535069192    0.4427396719681393    0.5665155440360311 Bi
   0.1601024535069192    0.3177396719681393    0.5665155440360311 Bi
   0.4279595963640621    0.3355968148252823    0.5665155440360311 Bi
   0.6958167392212049    0.3534539576824251    0.5665155440360311 Bi
   0.9636738820783478    0.3713111005395680    0.5665155440360311 Bi
   0.0886738820783478    0.2463111005395680    0.5665155440360311 Bi
   0.3565310249354907    0.2641682433967108    0.5665155440360311 Bi
   0.6243881677926335    0.2820253862538536    0.5665155440360311 Bi
   0.8922453106497763    0.2998825291109966    0.5665155440360311 Bi
   0.2851024535069191    0.1927396719681393    0.5665155440360311 Bi
   0.5529595963640620    0.2105968148252822    0.5665155440360311 Bi
   0.8208167392212049    0.2284539576824251    0.5665155440360311 Bi
   0.2136738820783478    0.1213111005395679    0.5665155440360311 Bi
   0.4815310249354904    0.1391682433967108    0.5665155440360311 Bi
   0.7493881677926334    0.1570253862538536    0.5665155440360311 Bi
   0.0172453106497764    0.1748825291109965    0.5665155440360311 Bi
   0.1422453106497764    0.0498825291109964    0.5665155440360311 Bi
   0.4101024535069192    0.0677396719681393    0.5665155440360311 Bi
   0.6779595963640620    0.0855968148252822    0.5665155440360311 Bi
   0.9458167392212050    0.1034539576824251    0.5665155440360311 Bi
   0.0708167392212049    0.9784539576824249    0.5665155440360311 Bi
   0.3386738820783478    0.9963111005395678    0.5665155440360311 Bi
   0.6065310249354906    0.0141682433967107    0.5665155440360311 Bi
   0.8743881677926336    0.0320253862538535    0.5665155440360311 Bi
   0.1550811415205172    0.8954072672383677    0.4870641414761426 Bi
   0.4229382843776601    0.9132644100955104    0.4870641414761426 Bi
   0.6907954272348029    0.9311215529526533    0.4870641414761426 Bi
   0.0836525700919457    0.8239786958097961    0.4870641414761426 Bi
   0.3515097129490886    0.8418358386669389    0.4870641414761426 Bi
   0.6193668558062314    0.8596929815240819    0.4870641414761426 Bi
   0.8872239986633742    0.8775501243812247    0.4870641414761426 Bi
   0.0122239986633743    0.7525501243812246    0.4870641414761426 Bi
   0.2800811415205172    0.7704072672383674    0.4870641414761426 Bi
   0.5479382843776600    0.7882644100955104    0.4870641414761426 Bi
   0.8157954272348027    0.8061215529526532    0.4870641414761426 Bi
   0.2086525700919460    0.6989786958097961    0.4870641414761426 Bi
   0.4765097129490885    0.7168358386669389    0.4870641414761426 Bi
   0.7443668558062316    0.7346929815240818    0.4870641414761426 Bi
   0.1372239986633745    0.6275501243812246    0.4870641414761426 Bi
   0.4050811415205171    0.6454072672383674    0.4870641414761426 Bi
   0.6729382843776601    0.6632644100955103    0.4870641414761426 Bi
   0.9407954272348028    0.6811215529526531    0.4870641414761426 Bi
   0.0657954272348030    0.5561215529526532    0.4870641414761426 Bi
   0.3336525700919458    0.5739786958097961    0.4870641414761426 Bi
   0.6015097129490886    0.5918358386669389    0.4870641414761426 Bi
   0.8693668558062312    0.6096929815240816    0.4870641414761426 Bi
   0.9943668558062315    0.4846929815240818    0.4870641414761426 Bi
   0.2622239986633743    0.5025501243812246    0.4870641414761426 Bi
   0.5300811415205171    0.5204072672383675    0.4870641414761426 Bi
   0.7979382843776600    0.5382644100955104    0.4870641414761426 Bi
   0.1907954272348029    0.4311215529526531    0.4870641414761426 Bi
   0.4586525700919456    0.4489786958097960    0.4870641414761426 Bi
   0.7265097129490886    0.4668358386669390    0.4870641414761426 Bi
   0.1193668558062315    0.3596929815240816    0.4870641414761426 Bi
   0.3872239986633743    0.3775501243812245    0.4870641414761426 Bi
   0.6550811415205173    0.3954072672383674    0.4870641414761426 Bi
   0.9229382843776600    0.4132644100955102    0.4870641414761426 Bi
   0.0479382843776601    0.2882644100955102    0.4870641414761426 Bi
   0.3157954272348030    0.3061215529526530    0.4870641414761426 Bi
   0.5836525700919458    0.3239786958097959    0.4870641414761426 Bi
   0.8515097129490886    0.3418358386669388    0.4870641414761426 Bi
   0.9765097129490886    0.2168358386669387    0.4870641414761426 Bi
   0.2443668558062315    0.2346929815240816    0.4870641414761426 Bi
   0.5122239986633744    0.2525501243812245    0.4870641414761426 Bi
   0.7800811415205172    0.2704072672383674    0.4870641414761426 Bi
   0.1729382843776600    0.1632644100955102    0.4870641414761426 Bi
   0.4407954272348028    0.1811215529526530    0.4870641414761426 Bi
   0.7086525700919457    0.1989786958097959    0.4870641414761426 Bi
   0.1015097129490886    0.0918358386669387    0.4870641414761426 Bi
   0.3693668558062314    0.1096929815240816    0.4870641414761426 Bi
   0.6372239986633743    0.1275501243812244    0.4870641414761426 Bi
   0.9050811415205171    0.1454072672383673    0.4870641414761426 Bi
   0.0300811415205172    0.0204072672383672    0.4870641414761426 Bi
   0.2979382843776600    0.0382644100955101    0.4870641414761426 Bi
   0.5657954272348029    0.0561215529526530    0.4870641414761426 Bi
   0.8336525700919458    0.0739786958097959    0.4870641414761426 Bi
   0.9586525700919457    0.9489786958097959    0.4870641414761426 Bi
   0.2265097129490886    0.9668358386669390    0.4870641414761426 Bi
   0.4943668558062316    0.9846929815240816    0.4870641414761426 Bi
   0.7622239986633744    0.0025501243812244    0.4870641414761426 Bi
   0.9964942002107133    0.5004546191361746    0.2000427878291579 Se
   0.0211855582354047    0.5621830141979031    0.2000427878291580 Se
   0.0458769162600959    0.6239114092596314    0.2000427878291580 Se
   0.0705682742847875    0.6856398043213598    0.2000427878291580 Se
   0.0952596323094785    0.7473681993830882    0.2000427878291580 Se
   0.1199509903341698    0.8090965944448166    0.2000427878291580 Se
   0.1446423483588616    0.8708249895065450    0.2000427878291580 Se
   0.1693337063835524    0.9325533845682734    0.2000427878291580 Se
   0.9841485211983677    0.9695904216053103    0.2000427878291580 Se
   0.0088398792230589    0.0313188166670388    0.2000427878291580 Se
   0.0335312372477503    0.0930472117287672    0.2000427878291580 Se
   0.0582225952724417    0.1547756067904956    0.2000427878291580 Se
   0.0829139532971330    0.2165040018522240    0.2000427878291580 Se
   0.1076053113218244    0.2782323969139524    0.2000427878291580 Se
   0.1322966693465158    0.3399607919756807    0.2000427878291580 Se
   0.1569880273712073    0.4016891870374092    0.2000427878291580 Se
   0.1816793853958985    0.4634175820991376    0.2000427878291579 Se
   0.2063707434205900    0.5251459771608660    0.2000427878291580 Se
   0.2310621014452812    0.5868743722225944    0.2000427878291580 Se
   0.2557534594699723    0.6486027672843228    0.2000427878291580 Se
   0.2804448174946639    0.7103311623460512    0.2000427878291580 Se
   0.3051361755193552    0.7720595574077795    0.2000427878291580 Se
   0.3298275335440465    0.8337879524695080    0.2000427878291580 Se
   0.3545188915687377    0.8955163475312363    0.2000427878291580 Se
   0.3792102495934295    0.9572447425929648    0.2000427878291580 Se
   0.1940250644082440    0.9942817796300017    0.2000427878291580 Se
   0.2187164224329355    0.0560101746917301    0.2000427878291580 Se
   0.2434077804576268    0.1177385697534585    0.2000427878291580 Se
   0.2680991384823181    0.1794669648151870    0.2000427878291580 Se
   0.2927904965070096    0.2411953598769153    0.2000427878291580 Se
   0.3174818545317010    0.3029237549386438    0.2000427878291580 Se
   0.3421732125563923    0.3646521500003722    0.2000427878291580 Se
   0.3668645705810837    0.4263805450621006    0.2000427878291580 Se
   0.3915559286057751    0.4881089401238290    0.2000427878291580 Se
   0.4162472866304667    0.5498373351855573    0.2000427878291580 Se
   0.4409386446551579    0.6115657302472857    0.2000427878291580 Se
   0.4656300026798490    0.6732941253090142    0.2000427878291580 Se
   0.4903213607045402    0.7350225203707424    0.2000427878291580 Se
   0.5150127187292317    0.7967509154324710    0.2000427878291580 Se
   0.5397040767539228    0.8584793104941992    0.2000427878291579 Se
   0.5643954347786144    0.9202077055559276    0.2000427878291580 Se
   0.4039016076181207    0.0189731376546931    0.2000427878291580 Se
   0.4285929656428121    0.0807015327164215    0.2000427878291580 Se
   0.4532843236675033    0.1424299277781499    0.2000427878291580 Se
   0.4779756816921948    0.2041583228398783    0.2000427878291580 Se