{'film_sl_vectors': array([[ -4.17082784,  14.44817145,   0.        ],
       [-54.2207619 , -14.44817145,   0.        ]]), 'substrate_sl_vectors': array([[ 12.12249774,   8.99862085,   0.        ],
       [-32.90392243,  44.99310427,   0.        ]]), 'film_vectors': array([[ 4.17082784,  0.        ,  0.        ],
       [-2.08541392,  3.61204286,  0.        ]]), 'substrate_vectors': array([[ 3.46357078,  0.        ,  0.        ],
       [-1.73178539,  2.99954028,  0.        ]]), 'film_transformation': array([[ 1.,  4.],
       [ 0., 56.]]), 'substrate_transformation': array([[ 1., 33.],
       [ 0., 81.]]), 'strain': Strain([[-0.00918057  0.00304704  0.        ]
 [ 0.00304704  0.00679891  0.        ]
 [ 0.          0.          0.        ]]), 'von_mises_strain': 0.009905765010402754, 'termination': ('default', 'default'), 'film_thickness': 1, 'substrate_thickness': 1, 'signed_angle': -69.51533819948664, 'decomposition_angle': 69.1247002535763}