Nb122 Bi172 Se502
1.0
  27.0513525754534214    0.0000000000000000    0.0000000000000017
  13.5256762875351235   23.4271585385594037    0.0000000000000017
   0.0000000000000000    0.0000000000000000   49.9893053307188922
Nb Bi Se
122 172 502
direct
   0.1066958755396760    0.6763764318659193    0.3566429020965913 Nb
   0.1722696460314794    0.7583436449806732    0.3566429020965913 Nb
   0.2378434165232825    0.8403108580954275    0.3566429020965913 Nb
   0.1230893181626268    0.4468682351446078    0.3566429020965913 Nb
   0.1886630886544301    0.5288354482593618    0.3566429020965913 Nb
   0.2542368591462335    0.6108026613741159    0.3566429020965913 Nb
   0.3198106296380366    0.6927698744888702    0.3566429020965913 Nb
   0.3853844001298397    0.7747370876036243    0.3566429020965913 Nb
   0.4509581706216431    0.8567043007183783    0.3566429020965913 Nb
   0.1394827607855777    0.2173600384232964    0.3566429020965913 Nb
   0.2050565312773809    0.2993272515380505    0.3566429020965913 Nb
   0.2706303017691843    0.3812944646528044    0.3566429020965913 Nb
   0.3362040722609874    0.4632616777675586    0.3566429020965913 Nb
   0.4017778427527908    0.5452288908823126    0.3566429020965913 Nb
   0.4673516132445941    0.6271961039970667    0.3566429020965913 Nb
   0.5329253837363973    0.7091633171118210    0.3566429020965913 Nb
   0.5984991542282005    0.7911305302265751    0.3566429020965913 Nb
   0.6640729247200039    0.8730977433413292    0.3566429020965913 Nb
   0.0903024329167252    0.9058846285872308    0.3566429020965913 Nb
   0.1558762034085285    0.9878518417019849    0.3566429020965913 Nb
   0.2214499739003317    0.0698190548167390    0.3566429020965913 Nb
   0.2870237443921351    0.1517862679314931    0.3566429020965913 Nb
   0.3525975148839383    0.2337534810462472    0.3566429020965913 Nb
   0.4181712853757417    0.3157206941610012    0.3566429020965913 Nb
   0.4837450558675450    0.3976879072757553    0.3566429020965913 Nb
   0.5493188263593481    0.4796551203905094    0.3566429020965913 Nb
   0.6148925968511514    0.5616223335052635    0.3566429020965913 Nb
   0.6804663673429547    0.6435895466200177    0.3566429020965913 Nb
   0.7460401378347581    0.7255567597347719    0.3566429020965913 Nb
   0.8116139083265613    0.8075239728495258    0.3566429020965913 Nb
   0.8771876788183645    0.8894911859642800    0.3566429020965912 Nb
   0.3034171870150859    0.9222780712101816    0.3566429020965913 Nb
   0.3689909575068892    0.0042452843249357    0.3566429020965913 Nb
   0.4345647279986925    0.0862124974396898    0.3566429020965913 Nb
   0.5001384984904955    0.1681797105544439    0.3566429020965913 Nb
   0.5657122689822989    0.2501469236691980    0.3566429020965913 Nb
   0.6312860394741023    0.3321141367839521    0.3566429020965913 Nb
   0.6968598099659056    0.4140813498987061    0.3566429020965913 Nb
   0.7624335804577088    0.4960485630134602    0.3566429020965913 Nb
   0.8280073509495122    0.5780157761282143    0.3566429020965913 Nb
   0.8935811214413153    0.6599829892429685    0.3566429020965913 Nb
   0.9591548919331186    0.7419502023577227    0.3566429020965912 Nb
   0.0247286624249221    0.8239174154724767    0.3566429020965913 Nb
   0.5165319411134466    0.9386715138331324    0.3566429020965913 Nb
   0.5821057116052499    0.0206387269478865    0.3566429020965913 Nb
   0.6476794820970531    0.1026059400626406    0.3566429020965913 Nb
   0.7132532525888562    0.1845731531773947    0.3566429020965913 Nb
   0.7788270230806598    0.2665403662921487    0.3566429020965913 Nb
   0.8444007935724628    0.3485075794069029    0.3566429020965913 Nb
   0.9099745640642662    0.4304747925216568    0.3566429020965913 Nb
   0.9755483345560698    0.5124420056364110    0.3566429020965913 Nb
   0.0411221050478729    0.5944092187511651    0.3566429020965913 Nb
   0.7296466952118071    0.9550649564560832    0.3566429020965913 Nb
   0.7952204657036106    0.0370321695708373    0.3566429020965913 Nb
   0.8607942361954137    0.1189993826855915    0.3566429020965913 Nb
   0.9263680066872170    0.2009665958003455    0.3566429020965913 Nb
   0.9919417771790202    0.2829338089150996    0.3566429020965913 Nb
   0.0575155476708237    0.3649010220298537    0.3566429020965913 Nb
   0.9427614493101679    0.9714583990790341    0.3566429020965913 Nb
   0.0083352198019711    0.0534256121937881    0.3566429020965913 Nb
   0.0739089902937744    0.1353928253085423    0.3566429020965913 Nb
   0.1070877266641408    0.6760531079349732    0.2336917587878816 Nb
   0.1726614971559442    0.7580203210497273    0.2336917587878816 Nb
   0.2382352676477474    0.8399875341644811    0.2336917587878816 Nb
   0.1234811692870917    0.4465449112136617    0.2336917587878816 Nb
   0.1890549397788949    0.5285121243284159    0.2336917587878816 Nb
   0.2546287102706983    0.6104793374431700    0.2336917587878816 Nb
   0.3202024807625014    0.6924465505579238    0.2336917587878816 Nb
   0.3857762512543049    0.7744137636726778    0.2336917587878816 Nb
   0.4513500217461079    0.8563809767874320    0.2336917587878816 Nb
   0.1398746119100425    0.2170367144923503    0.2336917587878816 Nb
   0.2054483824018458    0.2990039276071043    0.2336917587878816 Nb
   0.2710221528936491    0.3809711407218584    0.2336917587878816 Nb
   0.3365959233854523    0.4629383538366125    0.2336917587878816 Nb
   0.4021696938772558    0.5449055669513663    0.2336917587878816 Nb
   0.4677434643690589    0.6268727800661206    0.2336917587878816 Nb
   0.5333172348608624    0.7088399931808747    0.2336917587878816 Nb
   0.5988910053526656    0.7908072062956286    0.2336917587878816 Nb
   0.6644647758444687    0.8727744194103828    0.2336917587878816 Nb
   0.0906942840411900    0.9055613046562847    0.2336917587878816 Nb
   0.1562680545329934    0.9875285177710388    0.2336917587878816 Nb
   0.2218418250247966    0.0694957308857929    0.2336917587878816 Nb
   0.2874155955165999    0.1514629440005470    0.2336917587878816 Nb
   0.3529893660084031    0.2334301571153011    0.2336917587878816 Nb
   0.4185631365002065    0.3153973702300552    0.2336917587878816 Nb
   0.4841369069920097    0.3973645833448092    0.2336917587878816 Nb
   0.5497106774838130    0.4793317964595633    0.2336917587878816 Nb
   0.6152844479756164    0.5612990095743172    0.2336917587878816 Nb
   0.6808582184674198    0.6432662226890713    0.2336917587878816 Nb
   0.7464319889592231    0.7252334358038256    0.2336917587878816 Nb
   0.8120057594510264    0.8072006489185795    0.2336917587878816 Nb
   0.8775795299428295    0.8891678620333338    0.2336917587878816 Nb
   0.3038090381395508    0.9219547472792354    0.2336917587878816 Nb
   0.3693828086313540    0.0039219603939896    0.2336917587878816 Nb
   0.4349565791231573    0.0858891735087436    0.2336917587878816 Nb
   0.5005303496149606    0.1678563866234977    0.2336917587878816 Nb
   0.5661041201067638    0.2498235997382518    0.2336917587878816 Nb
   0.6316778905985672    0.3317908128530060    0.2336917587878816 Nb
   0.6972516610903705    0.4137580259677600    0.2336917587878816 Nb
   0.7628254315821738    0.4957252390825141    0.2336917587878816 Nb
   0.8283992020739769    0.5776924521972682    0.2336917587878816 Nb
   0.8939729725657803    0.6596596653120221    0.2336917587878816 Nb
   0.9595467430575835    0.7416268784267764    0.2336917587878816 Nb
   0.0251205135493869    0.8235940915415303    0.2336917587878816 Nb
   0.5169237922379114    0.9383481899021863    0.2336917587878816 Nb
   0.5824975627297145    0.0203154030169404    0.2336917587878816 Nb
   0.6480713332215179    0.1022826161316945    0.2336917587878816 Nb
   0.7136451037133211    0.1842498292464486    0.2336917587878816 Nb
   0.7792188742051246    0.2662170423612026    0.2336917587878816 Nb
   0.8447926446969277    0.3481842554759567    0.2336917587878816 Nb
   0.9103664151887310    0.4301514685907107    0.2336917587878816 Nb
   0.9759401856805343    0.5121186817054649    0.2336917587878816 Nb
   0.0415139561723377    0.5940858948202189    0.2336917587878816 Nb
   0.7300385463362722    0.9547416325251371    0.2336917587878816 Nb
   0.7956123168280752    0.0367088456398912    0.2336917587878816 Nb
   0.8611860873198787    0.1186760587546453    0.2336917587878816 Nb
   0.9267598578116819    0.2006432718693994    0.2336917587878816 Nb
   0.9923336283034851    0.2826104849841535    0.2336917587878816 Nb
   0.0579073987952885    0.3645776980989076    0.2336917587878816 Nb
   0.9431533004346327    0.9711350751480879    0.2336917587878816 Nb
   0.0087270709264360    0.0531022882628420    0.2336917587878816 Nb
   0.0743008414182391    0.1350695013775961    0.2336917587878816 Nb
   0.8879215496452687    0.7661843499950827    0.7671208852038269 Bi
   0.7483866659243382    0.7429285360415943    0.7671208852038269 Bi
   0.9111773635987575    0.6033936523206641    0.7671208852038269 Bi
   0.6088517822034082    0.7196727220881060    0.7671208852038269 Bi
   0.7716424798778269    0.5801378383671757    0.7671208852038269 Bi
   0.9344331775522453    0.4406029546462454    0.7671208852038269 Bi
   0.4693168984824781    0.6964169081346175    0.7671208852038269 Bi
   0.6321075961568967    0.5568820244136872    0.7671208852038269 Bi
   0.7948982938313153    0.4173471406927570    0.7671208852038269 Bi
   0.9576889915057339    0.2778122569718268    0.7671208852038269 Bi
   0.3297820147615477    0.6731610941811292    0.7671208852038270 Bi
   0.4925727124359665    0.5336262104601989    0.7671208852038270 Bi
   0.6553634101103850    0.3940913267392687    0.7671208852038270 Bi
   0.8181541077848037    0.2545564430183385    0.7671208852038270 Bi
   0.9809448054592220    0.1150215592974082    0.7671208852038270 Bi
   0.1902471310406174    0.6499052802276408    0.7671208852038270 Bi
   0.3530378287150361    0.5103703965067107    0.7671208852038270 Bi
   0.5158285263894548    0.3708355127857803    0.7671208852038270 Bi
   0.6786192240638733    0.2313006290648500    0.7671208852038270 Bi
   0.8414099217382919    0.0917657453439198    0.7671208852038270 Bi
   0.0042006194127107    0.9522308616229896    0.7671208852038270 Bi
   0.0507122473196873    0.6266494662741524    0.7671208852038270 Bi
   0.2135029449941060    0.4871145825532220    0.7671208852038270 Bi
   0.3762936426685245    0.3475796988322919    0.7671208852038270 Bi
   0.5390843403429431    0.2080448151113616    0.7671208852038270 Bi
   0.7018750380173620    0.0685099313904315    0.7671208852038270 Bi
   0.8646657356917803    0.9289750476695012    0.7671208852038269 Bi
   0.0739680612731757    0.4638587685997338    0.7671208852038270 Bi
   0.2367587589475944    0.3243238848788035    0.7671208852038270 Bi
   0.3995494566220131    0.1847890011578733    0.7671208852038270 Bi
   0.5623401542964315    0.0452541174369431    0.7671208852038270 Bi
   0.7251308519708503    0.9057192337160129    0.7671208852038269 Bi
   0.0972238752266642    0.3010680709253151    0.7671208852038270 Bi
   0.2600145729010828    0.1615331872043850    0.7671208852038270 Bi
   0.4228052705755014    0.0219983034834547    0.7671208852038270 Bi
   0.5855959682499201    0.8824634197625244    0.7671208852038269 Bi
   0.1204796891801525    0.1382773732508965    0.7671208852038270 Bi
   0.2832703868545711    0.9987424895299664    0.7671208852038270 Bi
   0.4460610845289897    0.8592076058090360    0.7671208852038269 Bi
   0.1437355031336409    0.9754866755764779    0.7671208852038270 Bi
   0.3065262008080595    0.8359517918555477    0.7671208852038269 Bi
   0.1669913170871292    0.8126959779020592    0.7671208852038270 Bi
   0.0274564333661991    0.7894401639485710    0.7671208852038270 Bi
   0.9276101913134682    0.8287669576023476    0.6873709670584139 Bi
   0.7880753075925384    0.8055111436488595    0.6873709670584139 Bi
   0.9508660052669572    0.6659762599279292    0.6873709670584139 Bi
   0.6485404238716083    0.7822553296953709    0.6873709670584139 Bi
   0.8113311215460268    0.6427204459744409    0.6873709670584139 Bi
   0.9741218192204455    0.5031855622535105    0.6873709670584139 Bi
   0.5090055401506780    0.7589995157418826    0.6873709670584139 Bi
   0.6717962378250965    0.6194646320209524    0.6873709670584139 Bi
   0.8345869354995152    0.4799297483000222    0.6873709670584139 Bi
   0.9973776331739337    0.3403948645790920    0.6873709670584138 Bi
   0.3694706564297475    0.7357437017883943    0.6873709670584138 Bi
   0.5322613541041664    0.5962088180674640    0.6873709670584138 Bi
   0.6950520517785851    0.4566739343465339    0.6873709670584138 Bi
   0.8578427494530034    0.3171390506256036    0.6873709670584138 Bi
   0.0206334471274221    0.1776041669046733    0.6873709670584138 Bi
   0.2299357727088172    0.7124878878349059    0.6873709670584138 Bi
   0.3927264703832360    0.5729530041139758    0.6873709670584138 Bi
   0.5555171680576546    0.4334181203930454    0.6873709670584138 Bi
   0.7183078657320733    0.2938832366721152    0.6873709670584138 Bi
   0.8810985634064917    0.1543483529511850    0.6873709670584138 Bi
   0.0438892610809105    0.0148134692302548    0.6873709670584138 Bi
   0.0904008889878871    0.6892320738814174    0.6873709670584138 Bi
   0.2531915866623057    0.5496971901604872    0.6873709670584138 Bi
   0.4159822843367243    0.4101623064395571    0.6873709670584138 Bi
   0.5787729820111430    0.2706274227186268    0.6873709670584138 Bi
   0.7415636796855617    0.1310925389976966    0.6873709670584138 Bi
   0.9043543773599804    0.9915576552767664    0.6873709670584138 Bi
   0.1136567029413757    0.5264413762069990    0.6873709670584138 Bi
   0.2764474006157944    0.3869064924860687    0.6873709670584138 Bi
   0.4392380982902128    0.2473716087651385    0.6873709670584138 Bi
   0.6020287959646315    0.1078367250442082    0.6873709670584138 Bi
   0.7648194936390500    0.9683018413232780    0.6873709670584138 Bi
   0.1369125168948641    0.3636506785325803    0.6873709670584138 Bi
   0.2997032145692827    0.2241157948116501    0.6873709670584138 Bi
   0.4624939122437013    0.0845809110907199    0.6873709670584138 Bi
   0.6252846099181196    0.9450460273697896    0.6873709670584139 Bi
   0.1601683308483524    0.2008599808581617    0.6873709670584138 Bi
   0.3229590285227710    0.0613250971372315    0.6873709670584138 Bi
   0.4857497261971898    0.9217902134163011    0.6873709670584139 Bi
   0.1834241448018408    0.0380692831837431    0.6873709670584138 Bi
   0.3462148424762594    0.8985343994628129    0.6873709670584138 Bi
   0.2066799587553291    0.8752785855093246    0.6873709670584138 Bi
   0.0671450750343990    0.8520227715558361    0.6873709670584138 Bi
   0.9265165026790760    0.8316097702051458    0.5665155440360311 Bi
   0.7869816189581460    0.8083539562516574    0.5665155440360310 Bi
   0.9497723166325650    0.6688190725307273    0.5665155440360310 Bi
   0.6474467352372157    0.7850981422981691    0.5665155440360310 Bi
   0.8102374329116343    0.6455632585772390    0.5665155440360310 Bi
   0.9730281305860529    0.5060283748563086    0.5665155440360310 Bi
   0.5079118515162857    0.7618423283446807    0.5665155440360310 Bi
   0.6707025491907040    0.6223074446237505    0.5665155440360310 Bi
   0.8334932468651226    0.4827725609028202    0.5665155440360310 Bi
   0.9962839445395413    0.3432376771818901    0.5665155440360311 Bi
   0.3683769677953554    0.7385865143911924    0.5665155440360311 Bi
   0.5311676654697740    0.5990516306702623    0.5665155440360311 Bi
   0.6939583631441926    0.4595167469493320    0.5665155440360311 Bi
   0.8567490608186114    0.3199818632284017    0.5665155440360311 Bi
   0.0195397584930297    0.1804469795074715    0.5665155440360311 Bi
   0.2288420840744248    0.7153307004377040    0.5665155440360311 Bi
   0.3916327817488438    0.5757958167167738    0.5665155440360311 Bi
   0.5544234794232623    0.4362609329958437    0.5665155440360311 Bi
   0.7172141770976809    0.2967260492749133    0.5665155440360311 Bi
   0.8800048747720993    0.1571911655539831    0.5665155440360311 Bi
   0.0427955724465183    0.0176562818330529    0.5665155440360311 Bi
   0.0893072003534948    0.6920748864842157    0.5665155440360311 Bi
   0.2520978980279135    0.5525400027632854    0.5665155440360311 Bi
   0.4148885957023321    0.4130051190423551    0.5665155440360311 Bi
   0.5776792933767507    0.2734702353214249    0.5665155440360311 Bi
   0.7404699910511693    0.1339353516004948    0.5665155440360311 Bi
   0.9032606887255877    0.9944004678795645    0.5665155440360311 Bi
   0.1125630143069834    0.5292841888097971    0.5665155440360311 Bi
   0.2753537119814019    0.3897493050888669    0.5665155440360311 Bi
   0.4381444096558205    0.2502144213679366    0.5665155440360311 Bi
   0.6009351073302395    0.1106795376470064    0.5665155440360311 Bi
   0.7637258050046578    0.9711446539260762    0.5665155440360311 Bi
   0.1358188282604718    0.3664934911353784    0.5665155440360311 Bi
   0.2986095259348902    0.2269586074144482    0.5665155440360311 Bi
   0.4614002236093089    0.0874237236935180    0.5665155440360311 Bi
   0.6241909212837276    0.9478888399725878    0.5665155440360311 Bi
   0.1590746422139601    0.2037027934609598    0.5665155440360311 Bi
   0.3218653398883786    0.0641679097400296    0.5665155440360311 Bi
   0.4846560375627971    0.9246330260190991    0.5665155440360310 Bi
   0.1823304561674484    0.0409120957865412    0.5665155440360311 Bi
   0.3451211538418673    0.9013772120656108    0.5665155440360311 Bi
   0.2055862701209368    0.8781213981121224    0.5665155440360311 Bi
   0.0660513864000067    0.8548655841586341    0.5665155440360311 Bi
   0.8266309687965944    0.8700881193958189    0.4870641414761426 Bi
   0.6870960850756646    0.8468323054423306    0.4870641414761426 Bi
   0.8498867827500834    0.7072974217214004    0.4870641414761426 Bi
   0.5475612013547341    0.8235764914888420    0.4870641414761426 Bi
   0.7103518990291527    0.6840416077679121    0.4870641414761426 Bi
   0.8731425967035714    0.5445067240469817    0.4870641414761426 Bi
   0.4080263176338040    0.8003206775353539    0.4870641414761426 Bi
   0.5708170153082226    0.6607857938144236    0.4870641414761426 Bi
   0.7336077129826412    0.5212509100934933    0.4870641414761426 Bi
   0.8963984106570598    0.3817160263725632    0.4870641414761426 Bi
   0.2684914339128738    0.7770648635818653    0.4870641414761426 Bi
   0.4312821315872923    0.6375299798609352    0.4870641414761426 Bi
   0.5940728292617108    0.4979950961400051    0.4870641414761426 Bi
   0.7568635269361296    0.3584602124190748    0.4870641414761426 Bi
   0.9196542246105480    0.2189253286981445    0.4870641414761426 Bi
   0.1289565501919434    0.7538090496283770    0.4870641414761426 Bi
   0.2917472478663620    0.6142741659074470    0.4870641414761426 Bi
   0.4545379455407806    0.4747392821865167    0.4870641414761426 Bi
   0.6173286432151994    0.3352043984655863    0.4870641414761426 Bi
   0.7801193408896178    0.1956695147446562    0.4870641414761426 Bi
   0.9429100385640364    0.0561346310237260    0.4870641414761426 Bi
   0.9894216664710134    0.7305532356748886    0.4870641414761426 Bi
   0.1522123641454318    0.5910183519539585    0.4870641414761426 Bi
   0.3150030618198504    0.4514834682330282    0.4870641414761426 Bi
   0.4777937594942693    0.3119485845120979    0.4870641414761426 Bi
   0.6405844571686876    0.1724137007911678    0.4870641414761426 Bi
   0.8033751548431065    0.0328788170702376    0.4870641414761426 Bi
   0.0126774804245016    0.5677625380004703    0.4870641414761426 Bi
   0.1754681780989203    0.4282276542795400    0.4870641414761426 Bi
   0.3382588757733389    0.2886927705586096    0.4870641414761426 Bi
   0.5010495734477578    0.1491578868376794    0.4870641414761426 Bi
   0.6638402711221763    0.0096230031167492    0.4870641414761426 Bi
   0.0359332943779901    0.4049718403260514    0.4870641414761426 Bi
   0.1987239920524086    0.2654369566051212    0.4870641414761426 Bi
   0.3615146897268273    0.1259020728841911    0.4870641414761426 Bi
   0.5243053874012459    0.9863671891632608    0.4870641414761426 Bi
   0.0591891083314784    0.2421811426516329    0.4870641414761426 Bi
   0.2219798060058970    0.1026462589307026    0.4870641414761426 Bi
   0.3847705036803156    0.9631113752097724    0.4870641414761426 Bi
   0.0824449222849669    0.0793904449772143    0.4870641414761426 Bi
   0.2452356199593854    0.9398555612562840    0.4870641414761426 Bi
   0.1057007362384551    0.9165997473027957    0.4870641414761426 Bi
   0.9661658525175246    0.8933439333493073    0.4870641414761426 Bi
   0.0360546392719490    0.6705656953897341    0.2000427878291580 Se
   0.1016284097637523    0.7525329085044882    0.2000427878291580 Se
   0.1672021802555557    0.8345001216192421    0.2000427878291579 Se
   0.0524480818948999    0.4410574986684225    0.2000427878291580 Se
   0.1180218523867030    0.5230247117831767    0.2000427878291580 Se
   0.1835956228785064    0.6049919248979309    0.2000427878291580 Se
   0.2491693933703097    0.6869591380126848    0.2000427878291580 Se
   0.3147431638621131    0.7689263511274390    0.2000427878291579 Se
   0.3803169343539163    0.8508935642421930    0.2000427878291579 Se
   0.0688415245178507    0.2115493019471111    0.2000427878291580 Se
   0.1344152950096540    0.2935165150618652    0.2000427878291580 Se
   0.1999890655014573    0.3754837281766192    0.2000427878291580 Se
   0.2655628359932604    0.4574509412913733    0.2000427878291580 Se
   0.3311366064850637    0.5394181544061275    0.2000427878291580 Se
   0.3967103769768671    0.6213853675208817    0.2000427878291579 Se
   0.4622841474686705    0.7033525806356357    0.2000427878291579 Se
   0.5278579179604735    0.7853197937503897    0.2000427878291579 Se
   0.5934316884522768    0.8672870068651438    0.2000427878291580 Se
   0.0196611966489983    0.9000738921110455    0.2000427878291580 Se
   0.0852349671408016    0.9820411052257997    0.2000427878291579 Se
   0.1508087376326049    0.0640083183405537    0.2000427878291579 Se
   0.2163825081244081    0.1459755314553078    0.2000427878291580 Se
   0.2819562786162113    0.2279427445700619    0.2000427878291580 Se
   0.3475300491080147    0.3099099576848160    0.2000427878291580 Se
   0.4131038195998179    0.3918771707995700    0.2000427878291580 Se
   0.4786775900916213    0.4738443839143242    0.2000427878291580 Se
   0.5442513605834245    0.5558115970290783    0.2000427878291579 Se
   0.6098251310752280    0.6377788101438321    0.2000427878291579 Se
   0.6753989015670312    0.7197460232585865    0.2000427878291580 Se
   0.7409726720588342    0.8017132363733405    0.2000427878291580 Se
   0.8065464425506375    0.8836804494880947    0.2000427878291580 Se
   0.2327759507473590    0.9164673347339962    0.2000427878291579 Se
   0.2983497212391623    0.9984345478487504    0.2000427878291580 Se
   0.3639234917309656    0.0804017609635045    0.2000427878291580 Se
   0.4294972622227687    0.1623689740782586    0.2000427878291580 Se
   0.4950710327145721    0.2443361871930126    0.2000427878291580 Se
   0.5606448032063754    0.3263034003077667    0.2000427878291580 Se
   0.6262185736981786    0.4082706134225207    0.2000427878291579 Se
   0.6917923441899820    0.4902378265372750    0.2000427878291579 Se
   0.7573661146817852    0.5722050396520291    0.2000427878291580 Se
   0.8229398851735884    0.6541722527667831    0.2000427878291580 Se
   0.8885136556653914    0.7361394658815373    0.2000427878291580 Se
   0.9540874261571949    0.8181066789962913    0.2000427878291580 Se
   0.4458907048457196    0.9328607773569471    0.2000427878291580 Se
   0.5114644753375228    0.0148279904717013    0.2000427878291580 Se
   0.5770382458293263    0.0967952035864554    0.2000427878291580 Se
   0.6426120163211293    0.1787624167012094    0.2000427878291580 Se
   0.7081857868129329    0.2607296298159635    0.2000427878291580 Se
   0.7737595573047360    0.3426968429307176    0.2000427878291579 Se
   0.8393333277965392    0.4246640560454716    0.2000427878291579 Se
   0.9049070982883424    0.5066312691602257    0.2000427878291580 Se
   0.9704808687801456    0.5885984822749798    0.2000427878291580 Se
   0.6590054589440802    0.9492542199798980    0.2000427878291580 Se
   0.7245792294358836    0.0312214330946521    0.2000427878291580 Se
   0.7901529999276868    0.1131886462094062    0.2000427878291580 Se
   0.8557267704194901    0.1951558593241602    0.2000427878291579 Se
   0.9213005409112934    0.2771230724389143    0.2000427878291579 Se
   0.9868743114030967    0.3590902855536683    0.2000427878291580 Se
   0.8721202130424411    0.9656476626028487    0.2000427878291580 Se
   0.9376939835342442    0.0476148757176028    0.2000427878291579 Se
   0.0032677540260475    0.1295820888323569    0.2000427878291579 Se
   0.0301924734557403    0.7474043585278866    0.3229896502366213 Se
   0.0957662439475436    0.8293715716426407    0.3229896502366213 Se
   0.1613400144393469    0.9113387847573948    0.3229896502366213 Se
   0.0465859160786911    0.5178961618065754    0.3229896502366213 Se
   0.1121596865704943    0.5998633749213294    0.3229896502366213 Se
   0.1777334570622977    0.6818305880360834    0.3229896502366213 Se
   0.2433072275541010    0.7637978011508375    0.3229896502366213 Se
   0.3088809980459044    0.8457650142655916    0.3229896502366213 Se
   0.3744547685377076    0.9277322273803457    0.3229896502366213 Se
   0.0629793587016419    0.2883879650852638    0.3229896502366213 Se
   0.1285531291934452    0.3703551782000180    0.3229896502366213 Se
   0.1941268996852485    0.4523223913147720    0.3229896502366213 Se
   0.2597006701770518    0.5342896044295261    0.3229896502366213 Se
   0.3252744406688550    0.6162568175442802    0.3229896502366213 Se
   0.3908482111606584    0.6982240306590343    0.3229896502366213 Se
   0.4564219816524618    0.7801912437737882    0.3229896502366213 Se
   0.5219957521442650    0.8621584568885424    0.3229896502366213 Se
   0.5875695226360680    0.9441256700032965    0.3229896502366212 Se
   0.0137990308327895    0.9769125552491984    0.3229896502366213 Se
   0.0793728013245928    0.0588797683639524    0.3229896502366213 Se
   0.1449465718163961    0.1408469814787065    0.3229896502366213 Se
   0.2105203423081993    0.2228141945934606    0.3229896502366213 Se
   0.2760941128000026    0.3047814077082146    0.3229896502366213 Se
   0.3416678832918060    0.3867486208229688    0.3229896502366213 Se
   0.4072416537836090    0.4687158339377229    0.3229896502366213 Se
   0.4728154242754125    0.5506830470524769    0.3229896502366213 Se
   0.5383891947672157    0.6326502601672309    0.3229896502366213 Se
   0.6039629652590190    0.7146174732819851    0.3229896502366213 Se
   0.6695367357508224    0.7965846863967391    0.3229896502366212 Se
   0.7351105062426256    0.8785518995114932    0.3229896502366212 Se
   0.8006842767344285    0.9605191126262473    0.3229896502366213 Se
   0.2269137849311501    0.9933059978721491    0.3229896502366213 Se
   0.2924875554229534    0.0752732109869032    0.3229896502366213 Se
   0.3580613259147568    0.1572404241016573    0.3229896502366213 Se
   0.4236350964065600    0.2392076372164113    0.3229896502366213 Se
   0.4892088668983634    0.3211748503311654    0.3229896502366213 Se
   0.5547826373901666    0.4031420634459197    0.3229896502366213 Se
   0.6203564078819698    0.4851092765606737    0.3229896502366213 Se
   0.6859301783737731    0.5670764896754278    0.3229896502366213 Se
   0.7515039488655766    0.6490437027901818    0.3229896502366213 Se
   0.8170777193573797    0.7310109159049361    0.3229896502366212 Se
   0.8826514898491827    0.8129781290196899    0.3229896502366214 Se
   0.9482252603409861    0.8949453421344440    0.3229896502366214 Se
   0.4400285390295108    0.0096994404951000    0.3229896502366213 Se
   0.5056023095213140    0.0916666536098541    0.3229896502366213 Se
   0.5711760800131175    0.1736338667246081    0.3229896502366213 Se
   0.6367498505049206    0.2556010798393622    0.3229896502366213 Se
   0.7023236209967241    0.3375682929541162    0.3229896502366213 Se
   0.7678973914885272    0.4195355060688705    0.3229896502366213 Se
   0.8334711619803304    0.5015027191836244    0.3229896502366213 Se
   0.8990449324721337    0.5834699322983786    0.3229896502366212 Se
   0.9646187029639367    0.6654371454131326    0.3229896502366214 Se
   0.6531432931278714    0.0260928831180508    0.3229896502366213 Se
   0.7187170636196747    0.1080600962328049    0.3229896502366213 Se
   0.7842908341114782    0.1900273093475590    0.3229896502366213 Se
   0.8498646046032813    0.2719945224623130    0.3229896502366213 Se
   0.9154383750950846    0.3539617355770671    0.3229896502366213 Se
   0.9810121455868879    0.4359289486918212    0.3229896502366213 Se
   0.8662580472262322    0.0424863257410016    0.3229896502366213 Se
   0.9318318177180354    0.1244535388557556    0.3229896502366213 Se
   0.9974055882098387    0.2064207519705097    0.3229896502366213 Se
   0.0360210008828362    0.6706096081359486    0.2673459347889959 Se
   0.1015947713746394    0.7525768212507030    0.2673459347889959 Se
   0.1671685418664426    0.8345440343654571    0.2673459347889959 Se
   0.0524144435057869    0.4411014114146374    0.2673459347889959 Se
   0.1179882139975902    0.5230686245293916    0.2673459347889959 Se
   0.1835619844893934    0.6050358376441457    0.2673459347889959 Se
   0.2491357549811967    0.6870030507588996    0.2673459347889959 Se
   0.3147095254730000    0.7689702638736539    0.2673459347889959 Se
   0.3802832959648033    0.8509374769884079    0.2673459347889959 Se
   0.0688078861287377    0.2115932146933260    0.2673459347889959 Se
   0.1343816566205411    0.2935604278080801    0.2673459347889959 Se
   0.1999554271123444    0.3755276409228341    0.2673459347889959 Se
   0.2655291976041476    0.4574948540375882    0.2673459347889959 Se
   0.3311029680959509    0.5394620671523424    0.2673459347889959 Se
   0.3966767385877542    0.6214292802670964    0.2673459347889959 Se