{'film_sl_vectors': array([[-27.11038095,   3.61204286,   0.        ],
       [-16.68331135, -21.67225718,  -0.        ]]), 'substrate_sl_vectors': array([[  1.73178539,  26.99586256,   0.        ],
       [-22.51321008,  14.99770142,   0.        ]]), 'film_vectors': array([[ 4.17082784,  0.        ,  0.        ],
       [-2.08541392,  3.61204286,  0.        ]]), 'substrate_vectors': array([[ 3.46357078,  0.        ,  0.        ],
       [-1.73178539,  2.99954028,  0.        ]]), 'film_transformation': array([[ 1.,  7.],
       [ 0., 43.]]), 'substrate_transformation': array([[ 1., 14.],
       [ 0., 61.]]), 'strain': Strain([[-1.08579591e-02  4.26869613e-12  0.00000000e+00]
 [ 4.26869613e-12 -1.08579591e-02  0.00000000e+00]
 [ 0.00000000e+00  0.00000000e+00  0.00000000e+00]]), 'von_mises_strain': 0.0072386394098001485, 'termination': ('default', 'default'), 'film_thickness': 1, 'substrate_thickness': 1, 'signed_angle': -86.08140703926748, 'decomposition_angle': 86.08140703934019}