Nb36 Bi52 Se150
1.0
   6.9271415635605562    0.0000000000000000    0.0000000000000004
   1.7317853893937818   26.9958625643091636    0.0000000000000017
   0.0000000000000000    0.0000000000000000   44.4624158930297497
Nb Bi Se
36 52 150
direct
   0.4149152107865153    0.7654826274236936    0.3447480443666843 Nb
   0.9149152107865153    0.7654826274236938    0.3447480443666843 Nb
   0.1926929885642934    0.6543715163125823    0.3447480443666843 Nb
   0.6926929885642932    0.6543715163125826    0.3447480443666843 Nb
   0.4704707663420712    0.5432604052014715    0.3447480443666843 Nb
   0.9704707663420713    0.5432604052014715    0.3447480443666843 Nb
   0.2482485441198488    0.4321492940903605    0.3447480443666843 Nb
   0.7482485441198492    0.4321492940903605    0.3447480443666843 Nb
   0.5260263218976265    0.3210381829792492    0.3447480443666843 Nb
   0.0260263218976267    0.3210381829792492    0.3447480443666843 Nb
   0.3038040996754046    0.2099270718681382    0.3447480443666843 Nb
   0.8038040996754046    0.2099270718681382    0.3447480443666843 Nb
   0.5815818774531821    0.0988159607570270    0.3447480443666843 Nb
   0.0815818774531823    0.0988159607570270    0.3447480443666843 Nb
   0.3593596552309600    0.9877048496459159    0.3447480443666843 Nb
   0.8593596552309601    0.9877048496459160    0.3447480443666843 Nb
   0.1371374330087378    0.8765937385348047    0.3447480443666843 Nb
   0.6371374330087384    0.8765937385348047    0.3447480443666843 Nb
   0.4148636770388194    0.7651212328296816    0.2065134900768984 Nb
   0.9148636770388192    0.7651212328296816    0.2065134900768984 Nb
   0.1926414548165972    0.6540101217185704    0.2065134900768984 Nb
   0.6926414548165971    0.6540101217185705    0.2065134900768984 Nb
   0.4704192325943747    0.5428990106074592    0.2065134900768984 Nb
   0.9704192325943750    0.5428990106074593    0.2065134900768984 Nb
   0.2481970103721524    0.4317878994963483    0.2065134900768984 Nb
   0.7481970103721528    0.4317878994963483    0.2065134900768984 Nb
   0.5259747881499304    0.3206767883852371    0.2065134900768984 Nb
   0.0259747881499305    0.3206767883852372    0.2065134900768984 Nb
   0.3037525659277083    0.2095656772741260    0.2065134900768984 Nb
   0.8037525659277081    0.2095656772741260    0.2065134900768984 Nb
   0.5815303437054861    0.0984545661630149    0.2065134900768984 Nb
   0.0815303437054861    0.0984545661630150    0.2065134900768984 Nb
   0.3593081214832638    0.9873434550519038    0.2065134900768984 Nb
   0.8593081214832639    0.9873434550519039    0.2065134900768984 Nb
   0.1370858992610414    0.8762323439407927    0.2065134900768984 Nb
   0.6370858992610414    0.8762323439407927    0.2065134900768984 Nb
   0.4140757057162184    0.8119078704285374    0.7944001694220467 Bi
   0.9525372441777564    0.7349847935054604    0.7944001694220467 Bi
   0.4909987826392948    0.6580617165823834    0.7944001694220467 Bi
   0.0294603211008332    0.5811386396593067    0.7944001694220467 Bi
   0.5679218595623716    0.5042155627362298    0.7944001694220467 Bi
   0.1063833980239101    0.4272924858131528    0.7944001694220467 Bi
   0.6448449364854485    0.3503694088900758    0.7944001694220467 Bi
   0.1833064749469870    0.2734463319669989    0.7944001694220467 Bi
   0.7217680134085255    0.1965232550439220    0.7944001694220467 Bi
   0.2602295518700640    0.1196001781208451    0.7944001694220467 Bi
   0.7986910903316023    0.0426771011977682    0.7944001694220467 Bi
   0.3371526287931408    0.9657540242746913    0.7944001694220467 Bi
   0.8756141672546796    0.8888309473516143    0.7944001694220467 Bi
   0.0838150589264175    0.8128322632928026    0.7047369577364248 Bi
   0.6222765973879563    0.7359091863697257    0.7047369577364248 Bi
   0.1607381358494948    0.6589861094466486    0.7047369577364248 Bi
   0.6991996743110334    0.5820630325235718    0.7047369577364248 Bi
   0.2376612127725712    0.5051399556004950    0.7047369577364248 Bi
   0.7761227512341099    0.4282168786774179    0.7047369577364248 Bi
   0.3145842896956484    0.3512938017543409    0.7047369577364248 Bi
   0.8530458281571870    0.2743707248312640    0.7047369577364248 Bi
   0.3915073666187255    0.1974476479081872    0.7047369577364248 Bi
   0.9299689050802639    0.1205245709851102    0.7047369577364248 Bi
   0.4684304435418021    0.0436014940620333    0.7047369577364248 Bi
   0.0068919820033408    0.9666784171389564    0.7047369577364248 Bi
   0.5453535204648797    0.8897553402158793    0.7047369577364248 Bi
   0.0801974734434272    0.8152544264208345    0.5688586317166682 Bi
   0.6186590119049656    0.7383313494977576    0.5688586317166682 Bi
   0.1571205503665048    0.6614082725746805    0.5688586317166682 Bi
   0.6955820888280427    0.5844851956516036    0.5688586317166682 Bi
   0.2340436272895811    0.5075621187285267    0.5688586317166682 Bi
   0.7725051657511199    0.4306390418054497    0.5688586317166682 Bi
   0.3109667042126580    0.3537159648823729    0.5688586317166682 Bi
   0.8494282426741968    0.2767928879592959    0.5688586317166682 Bi
   0.3878897811357349    0.1998698110362190    0.5688586317166682 Bi
   0.9263513195972736    0.1229467341131420    0.5688586317166682 Bi
   0.4648128580588121    0.0460236571900651    0.5688586317166682 Bi
   0.0032743965203505    0.9691005802669882    0.5688586317166682 Bi
   0.5417359349818890    0.8921775033439113    0.5688586317166683 Bi
   0.7498068613706033    0.8153152625797838    0.4795310425214357 Bi
   0.2882683998321428    0.7383921856567069    0.4795310425214356 Bi
   0.8267299382936805    0.6614691087336299    0.4795310425214356 Bi
   0.3651914767552188    0.5845460318105530    0.4795310425214357 Bi
   0.9036530152167572    0.5076229548874760    0.4795310425214357 Bi
   0.4421145536782957    0.4306998779643991    0.4795310425214357 Bi
   0.9805760921398344    0.3537768010413222    0.4795310425214357 Bi
   0.5190376306013726    0.2768537241182453    0.4795310425214357 Bi
   0.0574991690629115    0.1999306471951684    0.4795310425214357 Bi
   0.5959607075244499    0.1230075702720914    0.4795310425214357 Bi
   0.1344222459859882    0.0460844933490145    0.4795310425214357 Bi
   0.6728837844475269    0.9691614164259376    0.4795310425214357 Bi
   0.2113453229090652    0.8922383395028606    0.4795310425214356 Bi
   0.6556711608945569    0.8021452091385707    0.1686817922364798 Se
   0.1556711608945575    0.8021452091385708    0.1686817922364798 Se
   0.4334489386723350    0.6910340980274594    0.1686817922364798 Se
   0.9334489386723350    0.6910340980274596    0.1686817922364798 Se
   0.7112267164501132    0.5799229869163485    0.1686817922364798 Se
   0.2112267164501132    0.5799229869163485    0.1686817922364798 Se
   0.4890044942278911    0.4688118758052374    0.1686817922364798 Se
   0.9890044942278911    0.4688118758052375    0.1686817922364798 Se
   0.7667822720056688    0.3577007646941263    0.1686817922364798 Se
   0.2667822720056687    0.3577007646941263    0.1686817922364798 Se
   0.5445600497834465    0.2465896535830152    0.1686817922364798 Se
   0.0445600497834464    0.2465896535830152    0.1686817922364798 Se
   0.8223378275612241    0.1354785424719041    0.1686817922364798 Se
   0.3223378275612241    0.1354785424719041    0.1686817922364798 Se
   0.6001156053390018    0.0243674313607930    0.1686817922364798 Se
   0.1001156053390019    0.0243674313607930    0.1686817922364798 Se
   0.3778933831167798    0.9132563202496817    0.1686817922364798 Se
   0.8778933831167797    0.9132563202496820    0.1686817922364798 Se
   0.3964360598794326    0.8395524848756436    0.3069115334886654 Se
   0.8964360598794332    0.8395524848756436    0.3069115334886654 Se
   0.1742138376572110    0.7284413737645323    0.3069115334886654 Se
   0.6742138376572113    0.7284413737645323    0.3069115334886654 Se
   0.4519916154349886    0.6173302626534214    0.3069115334886655 Se
   0.9519916154349888    0.6173302626534214    0.3069115334886655 Se
   0.2297693932127664    0.5062191515423103    0.3069115334886655 Se
   0.7297693932127662    0.5062191515423103    0.3069115334886655 Se
   0.5075471709905442    0.3951080404311992    0.3069115334886655 Se
   0.0075471709905441    0.3951080404311992    0.3069115334886655 Se
   0.2853249487683219    0.2839969293200880    0.3069115334886655 Se
   0.7853249487683220    0.2839969293200880    0.3069115334886655 Se
   0.5631027265460995    0.1728858182089769    0.3069115334886655 Se
   0.0631027265460999    0.1728858182089769    0.3069115334886655 Se
   0.3408805043238776    0.0617747070978658    0.3069115334886655 Se
   0.8408805043238775    0.0617747070978658    0.3069115334886655 Se
   0.1186582821016554    0.9506635959867548    0.3069115334886654 Se
   0.6186582821016556    0.9506635959867548    0.3069115334886654 Se
   0.6556172398549107    0.8021834139086178    0.2443510399711945 Se
   0.1556172398549105    0.8021834139086179    0.2443510399711945 Se
   0.4333950176326877    0.6910723027975068    0.2443510399711945 Se
   0.9333950176326884    0.6910723027975066    0.2443510399711945 Se
   0.7111727954104657    0.5799611916863957    0.2443510399711945 Se
   0.2111727954104661    0.5799611916863957    0.2443510399711945 Se
   0.4889505731882434    0.4688500805752848    0.2443510399711945 Se
   0.9889505731882440    0.4688500805752845    0.2443510399711945 Se
   0.7667283509660213    0.3577389694641734    0.2443510399711945 Se
   0.2667283509660217    0.3577389694641734    0.2443510399711945 Se
   0.5445061287437994    0.2466278583530624    0.2443510399711945 Se
   0.0445061287437995    0.2466278583530624    0.2443510399711945 Se
   0.8222839065215769    0.1355167472419513    0.2443510399711945 Se
   0.3222839065215772    0.1355167472419513    0.2443510399711945 Se
   0.6000616842993550    0.0244056361308402    0.2443510399711945 Se
   0.1000616842993549    0.0244056361308402    0.2443510399711945 Se
   0.3778394620771330    0.9132945250197290    0.2443510399711945 Se
   0.8778394620771328    0.9132945250197290    0.2443510399711945 Se
   0.3963594936474757    0.8395876030076379    0.3825808312104175 Se
   0.8963594936474752    0.8395876030076381    0.3825808312104175 Se
   0.1741372714252536    0.7284764918965269    0.3825808312104175 Se
   0.6741372714252536    0.7284764918965269    0.3825808312104175 Se
   0.4519150492030308    0.6173653807854157    0.3825808312104175 Se
   0.9519150492030310    0.6173653807854157    0.3825808312104175 Se
   0.2296928269808086    0.5062542696743048    0.3825808312104175 Se
   0.7296928269808087    0.5062542696743048    0.3825808312104175 Se
   0.5074706047585866    0.3951431585631935    0.3825808312104175 Se
   0.0074706047585869    0.3951431585631935    0.3825808312104175 Se
   0.2852483825363644    0.2840320474520824    0.3825808312104175 Se
   0.7852483825363643    0.2840320474520824    0.3825808312104175 Se
   0.5630261603141421    0.1729209363409713    0.3825808312104175 Se
   0.0630261603141422    0.1729209363409714    0.3825808312104175 Se
   0.3408039380919199    0.0618098252298602    0.3825808312104175 Se
   0.8408039380919199    0.0618098252298602    0.3825808312104175 Se
   0.1185817158696981    0.9506987141187491    0.3825808312104175 Se
   0.6185817158696978    0.9506987141187491    0.3825808312104176 Se
   0.0790611219012776    0.8119258361337026    0.8313182077635204 Se
   0.6175226603628159    0.7350027592106256    0.8313182077635204 Se
   0.1559841988243545    0.6580796822875488    0.8313182077635204 Se
   0.6944457372858932    0.5811566053644719    0.8313182077635204 Se
   0.2329072757474315    0.5042335284413951    0.8313182077635204 Se
   0.7713688142089701    0.4273104515183181    0.8313182077635204 Se
   0.3098303526705087    0.3503873745952412    0.8313182077635204 Se
   0.8482918911320471    0.2734642976721641    0.8313182077635204 Se
   0.3867534295935856    0.1965412207490873    0.8313182077635204 Se
   0.9252149680551238    0.1196181438260103    0.8313182077635204 Se
   0.4636765065166623    0.0426950669029334    0.8313182077635204 Se
   0.0021380449782008    0.9657719899798565    0.8313182077635204 Se
   0.5405995834397390    0.8888489130567796    0.8313182077635204 Se
   0.7507280954170210    0.8121447254595877    0.7495056388254160 Se
   0.2891896338785596    0.7352216485365107    0.7495056388254160 Se
   0.8276511723400976    0.6582985716134337    0.7495056388254160 Se
   0.3661127108016361    0.5813754946903569    0.7495056388254160 Se
   0.9045742492631745    0.5044524177672800    0.7495056388254160 Se
   0.4430357877247127    0.4275293408442030    0.7495056388254160 Se
   0.9814973261862514    0.3506062639211261    0.7495056388254160 Se
   0.5199588646477902    0.2736831869980492    0.7495056388254160 Se
   0.0584204031093285    0.1967601100749723    0.7495056388254160 Se
   0.5968819415708667    0.1198370331518953    0.7495056388254160 Se
   0.1353434800324052    0.0429139562288184    0.7495056388254160 Se
   0.6738050184939439    0.9659908793057415    0.7495056388254160 Se
   0.2122665569554823    0.8890678023826647    0.7495056388254160 Se
   0.4159096447729023    0.8124706505064787    0.6677845033197067 Se
   0.9543711832344410    0.7355475735834018    0.6677845033197067 Se
   0.4928327216959799    0.6586244966603251    0.6677845033197067 Se
   0.0312942601575177    0.5817014197372482    0.6677845033197067 Se
   0.5697557986190559    0.5047783428141713    0.6677845033197067 Se
   0.1082173370805948    0.4278552658910942    0.6677845033197067 Se
   0.6466788755421332    0.3509321889680174    0.6677845033197067 Se
   0.1851404140036718    0.2740091120449405    0.6677845033197067 Se
   0.7236019524652103    0.1970860351218635    0.6677845033197067 Se
   0.2620634909267485    0.1201629581987866    0.6677845033197067 Se
   0.8005250293882872    0.0432398812757097    0.6677845033197067 Se
   0.3389865678498256    0.9663168043526328    0.6677845033197067 Se
   0.8774481063113639    0.8893937274295560    0.6677845033197067 Se
   0.7500530266177811    0.8151688729609164    0.6055580957863088 Se
   0.2885145650793201    0.7382457960378395    0.6055580957863087 Se
   0.8269761035408577    0.6613227191147626    0.6055580957863087 Se
   0.3654376420023965    0.5843996421916856    0.6055580957863087 Se
   0.9038991804639350    0.5074765652686087    0.6055580957863087 Se
   0.4423607189254735    0.4305534883455318    0.6055580957863087 Se
   0.9808222573870118    0.3536304114224548    0.6055580957863087 Se
   0.5192837958485503    0.2767073344993780    0.6055580957863087 Se
   0.0577453343100888    0.1997842575763011    0.6055580957863087 Se
   0.5962068727716272    0.1228611806532241    0.6055580957863087 Se
   0.1346684112331658    0.0459381037301472    0.6055580957863087 Se
   0.6731299496947041    0.9690150268070703    0.6055580957863087 Se
   0.2115914881562429    0.8920919498839934    0.6055580957863087 Se
   0.4141030820407622    0.8154883172071071    0.5241890951556734 Se
   0.9525646205023002    0.7385652402840304    0.5241890951556734 Se
   0.4910261589638390    0.6616421633609533    0.5241890951556734 Se
   0.0294876974253775    0.5847190864378764    0.5241890951556734 Se
   0.5679492358869155    0.5077960095147996    0.5241890951556734 Se
   0.1064107743484543    0.4308729325917225    0.5241890951556734 Se
   0.6448723128099928    0.3539498556686455    0.5241890951556734 Se
   0.1833338512715313    0.2770267787455687    0.5241890951556734 Se
   0.7217953897330698    0.2001037018224918    0.5241890951556734 Se
   0.2602569281946081    0.1231806248994148    0.5241890951556734 Se
   0.7987184666561464    0.0462575479763379    0.5241890951556734 Se
   0.3371800051176850    0.9693344710532610    0.5241890951556734 Se
   0.8756415435792237    0.8924113941301842    0.5241890951556734 Se
   0.0791232264579416    0.8152742150463619    0.4427015086099987 Se
   0.6175847649194808    0.7383511381232849    0.4427015086099987 Se
   0.1560463033810187    0.6614280612002079    0.4427015086099987 Se
   0.6945078418425572    0.5845049842771309    0.4427015086099987 Se
   0.2329693803040954    0.5075819073540542    0.4427015086099987 Se
   0.7714309187656342    0.4306588304309772    0.4427015086099987 Se
   0.3098924572271724    0.3537357535079002    0.4427015086099987 Se
   0.8483539956887111    0.2768126765848233    0.4427015086099987 Se
   0.3868155341502496    0.1998895996617464    0.4427015086099987 Se
   0.9252770726117877    0.1229665227386694    0.4427015086099987 Se
   0.4637386110733263    0.0460434458155925    0.4427015086099987 Se
   0.0022001495348647    0.9691203688925156    0.4427015086099987 Se
   0.5406616879964036    0.8921972919694386    0.4427015086099987 Se
