Nb156 Bi216 Se636
1.0
  17.9972417086755208    0.0000000000000000    0.0000000000000011
   5.9990805695585063   45.0264201653050264    0.0000000000000028
   0.0000000000000000    0.0000000000000000   49.9893053307188922
Nb Bi Se
156 216 636
direct
   0.0593045076691380    0.9939602228543397    0.3566429020965912 Nb
   0.2131506615152918    0.0324217613158782    0.3566429020965912 Nb
   0.3926378410024712    0.9939602228543397    0.3566429020965912 Nb
   0.1875096358742662    0.1093448382389550    0.3566429020965912 Nb
   0.3669968153614457    0.0708832997774166    0.3566429020965912 Nb
   0.5464839948486252    0.0324217613158782    0.3566429020965912 Nb
   0.7259711743358045    0.9939602228543397    0.3566429020965912 Nb
   0.1618686102332406    0.1862679151620320    0.3566429020965912 Nb
   0.3413557897204200    0.1478063767004935    0.3566429020965912 Nb
   0.5208429692075994    0.1093448382389550    0.3566429020965912 Nb
   0.7003301486947788    0.0708832997774166    0.3566429020965912 Nb
   0.8798173281819585    0.0324217613158782    0.3566429020965912 Nb
   0.1362275845922149    0.2631909920851089    0.3566429020965912 Nb
   0.3157147640793943    0.2247294536235704    0.3566429020965912 Nb
   0.4952019435665738    0.1862679151620320    0.3566429020965912 Nb
   0.6746891230537533    0.1478063767004935    0.3566429020965913 Nb
   0.8541763025409332    0.1093448382389550    0.3566429020965913 Nb
   0.0336634820281122    0.0708832997774166    0.3566429020965912 Nb
   0.1105865589511893    0.3401140690081859    0.3566429020965912 Nb
   0.2900737384383688    0.3016525305466473    0.3566429020965913 Nb
   0.4695609179255483    0.2631909920851089    0.3566429020965913 Nb
   0.6490480974127280    0.2247294536235704    0.3566429020965913 Nb
   0.8285352768999074    0.1862679151620320    0.3566429020965913 Nb
   0.0080224563870867    0.1478063767004935    0.3566429020965912 Nb
   0.0849455333101636    0.4170371459312627    0.3566429020965913 Nb
   0.2644327127973430    0.3785756074697242    0.3566429020965913 Nb
   0.4439198922845226    0.3401140690081857    0.3566429020965913 Nb
   0.6234070717717020    0.3016525305466473    0.3566429020965913 Nb
   0.8028942512588818    0.2631909920851088    0.3566429020965913 Nb
   0.9823814307460611    0.2247294536235704    0.3566429020965912 Nb
   0.0593045076691380    0.4939602228543397    0.3566429020965913 Nb
   0.2387916871563175    0.4554986843928012    0.3566429020965913 Nb
   0.4182788666434969    0.4170371459312627    0.3566429020965913 Nb
   0.5977660461306763    0.3785756074697242    0.3566429020965913 Nb
   0.7772532256178558    0.3401140690081859    0.3566429020965913 Nb
   0.9567404051050353    0.3016525305466474    0.3566429020965912 Nb
   0.2131506615152918    0.5324217613158780    0.3566429020965913 Nb
   0.3926378410024714    0.4939602228543395    0.3566429020965913 Nb
   0.5721250204896507    0.4554986843928010    0.3566429020965913 Nb
   0.7516121999768303    0.4170371459312627    0.3566429020965913 Nb
   0.9310993794640098    0.3785756074697242    0.3566429020965913 Nb
   0.1875096358742661    0.6093448382389548    0.3566429020965913 Nb
   0.3669968153614456    0.5708832997774164    0.3566429020965913 Nb
   0.5464839948486251    0.5324217613158778    0.3566429020965913 Nb
   0.7259711743358046    0.4939602228543395    0.3566429020965913 Nb
   0.9054583538229840    0.4554986843928010    0.3566429020965913 Nb
   0.1618686102332406    0.6862679151620319    0.3566429020965913 Nb
   0.3413557897204199    0.6478063767004932    0.3566429020965913 Nb
   0.5208429692075994    0.6093448382389548    0.3566429020965913 Nb
   0.7003301486947792    0.5708832997774165    0.3566429020965913 Nb
   0.8798173281819583    0.5324217613158780    0.3566429020965913 Nb
   0.1362275845922150    0.7631909920851089    0.3566429020965913 Nb
   0.3157147640793942    0.7247294536235704    0.3566429020965913 Nb
   0.4952019435665738    0.6862679151620319    0.3566429020965913 Nb
   0.6746891230537536    0.6478063767004932    0.3566429020965913 Nb
   0.8541763025409329    0.6093448382389548    0.3566429020965913 Nb
   0.0336634820281124    0.5708832997774165    0.3566429020965913 Nb
   0.1105865589511892    0.8401140690081855    0.3566429020965913 Nb
   0.2900737384383687    0.8016525305466472    0.3566429020965913 Nb
   0.4695609179255482    0.7631909920851088    0.3566429020965913 Nb
   0.6490480974127275    0.7247294536235704    0.3566429020965913 Nb
   0.8285352768999072    0.6862679151620319    0.3566429020965912 Nb
   0.0080224563870865    0.6478063767004932    0.3566429020965913 Nb
   0.0849455333101636    0.9170371459312625    0.3566429020965913 Nb
   0.2644327127973430    0.8785756074697242    0.3566429020965913 Nb
   0.4439198922845227    0.8401140690081855    0.3566429020965912 Nb
   0.6234070717717021    0.8016525305466474    0.3566429020965912 Nb
   0.8028942512588816    0.7631909920851089    0.3566429020965912 Nb
   0.9823814307460611    0.7247294536235704    0.3566429020965913 Nb
   0.2387916871563173    0.9554986843928012    0.3566429020965912 Nb
   0.4182788666434970    0.9170371459312625    0.3566429020965912 Nb
   0.5977660461306764    0.8785756074697242    0.3566429020965912 Nb
   0.7772532256178559    0.8401140690081859    0.3566429020965912 Nb
   0.9567404051050353    0.8016525305466474    0.3566429020965913 Nb
   0.5721250204896505    0.9554986843928012    0.3566429020965912 Nb
   0.7516121999768304    0.9170371459312625    0.3566429020965912 Nb
   0.9310993794640099    0.8785756074697242    0.3566429020965912 Nb
   0.9054583538229840    0.9554986843928012    0.3566429020965912 Nb
   0.0595639366925241    0.9941369560169075    0.2336917587878816 Nb
   0.2134100905386780    0.0325984944784460    0.2336917587878816 Nb
   0.3928972700258574    0.9941369560169075    0.2336917587878816 Nb
   0.1877690648976522    0.1095215714015229    0.2336917587878816 Nb
   0.3672562443848318    0.0710600329399845    0.2336917587878816 Nb
   0.5467434238720114    0.0325984944784460    0.2336917587878816 Nb
   0.7262306033591908    0.9941369560169075    0.2336917587878816 Nb
   0.1621280392566267    0.1864446483245998    0.2336917587878816 Nb
   0.3416152187438062    0.1479831098630614    0.2336917587878816 Nb
   0.5211023982309857    0.1095215714015229    0.2336917587878816 Nb
   0.7005895777181652    0.0710600329399845    0.2336917587878816 Nb
   0.8800767572053447    0.0325984944784460    0.2336917587878816 Nb
   0.1364870136156011    0.2633677252476768    0.2336917587878816 Nb
   0.3159741931027806    0.2249061867861382    0.2336917587878816 Nb
   0.4954613725899601    0.1864446483245998    0.2336917587878816 Nb
   0.6749485520771397    0.1479831098630614    0.2336917587878816 Nb
   0.8544357315643191    0.1095215714015229    0.2336917587878816 Nb
   0.0339229110514986    0.0710600329399845    0.2336917587878816 Nb
   0.1108459879745755    0.3402908021707536    0.2336917587878816 Nb
   0.2903331674617549    0.3018292637092153    0.2336917587878816 Nb
   0.4698203469489344    0.2633677252476768    0.2336917587878816 Nb
   0.6493075264361138    0.2249061867861383    0.2336917587878816 Nb
   0.8287947059232935    0.1864446483245998    0.2336917587878816 Nb
   0.0082818854104728    0.1479831098630614    0.2336917587878816 Nb
   0.0852049623335497    0.4172138790938306    0.2336917587878816 Nb
   0.2646921418207292    0.3787523406322921    0.2336917587878816 Nb
   0.4441793213079087    0.3402908021707536    0.2336917587878816 Nb
   0.6236665007950882    0.3018292637092151    0.2336917587878816 Nb
   0.8031536802822679    0.2633677252476768    0.2336917587878816 Nb
   0.9826408597694473    0.2249061867861382    0.2336917587878816 Nb
   0.0595639366925241    0.4941369560169075    0.2336917587878816 Nb
   0.2390511161797037    0.4556754175553690    0.2336917587878816 Nb
   0.4185382956668832    0.4172138790938307    0.2336917587878816 Nb
   0.5980254751540627    0.3787523406322922    0.2336917587878816 Nb
   0.7775126546412422    0.3402908021707536    0.2336917587878816 Nb
   0.9569998341284215    0.3018292637092153    0.2336917587878816 Nb
   0.2134100905386779    0.5325984944784459    0.2336917587878816 Nb
   0.3928972700258574    0.4941369560169075    0.2336917587878816 Nb
   0.5723844495130370    0.4556754175553690    0.2336917587878816 Nb
   0.7518716290002165    0.4172138790938306    0.2336917587878816 Nb
   0.9313588084873959    0.3787523406322922    0.2336917587878816 Nb
   0.1877690648976524    0.6095215714015229    0.2336917587878816 Nb
   0.3672562443848319    0.5710600329399843    0.2336917587878816 Nb
   0.5467434238720112    0.5325984944784459    0.2336917587878816 Nb
   0.7262306033591909    0.4941369560169075    0.2336917587878816 Nb
   0.9057177828463704    0.4556754175553690    0.2336917587878816 Nb
   0.1621280392566266    0.6864446483245998    0.2336917587878816 Nb
   0.3416152187438061    0.6479831098630613    0.2336917587878816 Nb
   0.5211023982309856    0.6095215714015229    0.2336917587878816 Nb
   0.7005895777181653    0.5710600329399843    0.2336917587878816 Nb
   0.8800767572053447    0.5325984944784459    0.2336917587878816 Nb
   0.1364870136156010    0.7633677252476766    0.2336917587878816 Nb
   0.3159741931027804    0.7249061867861379    0.2336917587878816 Nb
   0.4954613725899601    0.6864446483245996    0.2336917587878816 Nb
   0.6749485520771394    0.6479831098630613    0.2336917587878816 Nb
   0.8544357315643193    0.6095215714015229    0.2336917587878816 Nb
   0.0339229110514986    0.5710600329399843    0.2336917587878816 Nb
   0.1108459879745755    0.8402908021707535    0.2336917587878816 Nb
   0.2903331674617548    0.8018292637092150    0.2336917587878816 Nb
   0.4698203469489345    0.7633677252476764    0.2336917587878816 Nb
   0.6493075264361139    0.7249061867861379    0.2336917587878816 Nb
   0.8287947059232935    0.6864446483245996    0.2336917587878816 Nb
   0.0082818854104726    0.6479831098630613    0.2336917587878816 Nb
   0.0852049623335499    0.9172138790938305    0.2336917587878816 Nb
   0.2646921418207293    0.8787523406322920    0.2336917587878816 Nb
   0.4441793213079088    0.8402908021707535    0.2336917587878816 Nb
   0.6236665007950885    0.8018292637092150    0.2336917587878816 Nb
   0.8031536802822676    0.7633677252476766    0.2336917587878816 Nb
   0.9826408597694474    0.7249061867861379    0.2336917587878816 Nb
   0.2390511161797036    0.9556754175553690    0.2336917587878816 Nb
   0.4185382956668832    0.9172138790938305    0.2336917587878816 Nb
   0.5980254751540628    0.8787523406322920    0.2336917587878816 Nb
   0.7775126546412422    0.8402908021707537    0.2336917587878816 Nb
   0.9569998341284217    0.8018292637092150    0.2336917587878816 Nb
   0.5723844495130369    0.9556754175553690    0.2336917587878816 Nb
   0.7518716290002165    0.9172138790938305    0.2336917587878816 Nb
   0.9313588084873962    0.8787523406322920    0.2336917587878816 Nb
   0.9057177828463703    0.9556754175553690    0.2336917587878816 Nb
   0.0596007274067283    0.0310996579502592    0.7671208852038270 Bi
   0.2262673940733949    0.0866552135058147    0.7671208852038270 Bi
   0.1707118385178394    0.1792478060984073    0.7671208852038270 Bi
   0.1151562829622838    0.2718403986909999    0.7671208852038270 Bi
   0.0596007274067283    0.3644329912835926    0.7671208852038270 Bi
   0.4484896162956172    0.0496181764687777    0.7671208852038270 Bi
   0.3929340607400617    0.1422107690613703    0.7671208852038270 Bi
   0.3373785051845061    0.2348033616539629    0.7671208852038270 Bi
   0.2818229496289504    0.3273959542465554    0.7671208852038270 Bi
   0.2262673940733950    0.4199885468391481    0.7671208852038270 Bi
   0.1707118385178394    0.5125811394317407    0.7671208852038270 Bi
   0.1151562829622839    0.6051737320243332    0.7671208852038270 Bi
   0.0596007274067284    0.6977663246169258    0.7671208852038269 Bi
   0.6151562829622838    0.1051737320243333    0.7671208852038270 Bi
   0.5596007274067285    0.1977663246169258    0.7671208852038270 Bi
   0.5040451718511729    0.2903589172095186    0.7671208852038270 Bi
   0.4484896162956173    0.3829515098021110    0.7671208852038270 Bi
   0.3929340607400617    0.4755441023947036    0.7671208852038270 Bi
   0.3373785051845062    0.5681366949872961    0.7671208852038269 Bi
   0.2818229496289505    0.6607292875798888    0.7671208852038269 Bi
   0.2262673940733951    0.7533218801724814    0.7671208852038269 Bi
   0.1707118385178395    0.8459144727650739    0.7671208852038269 Bi
   0.1151562829622838    0.9385070653576665    0.7671208852038269 Bi
   0.8373785051845061    0.0681366949872962    0.7671208852038270 Bi
   0.7818229496289507    0.1607292875798888    0.7671208852038270 Bi
   0.7262673940733951    0.2533218801724814    0.7671208852038270 Bi
   0.6707118385178394    0.3459144727650739    0.7671208852038270 Bi
   0.6151562829622838    0.4385070653576666    0.7671208852038269 Bi
   0.5596007274067282    0.5310996579502592    0.7671208852038269 Bi
   0.5040451718511728    0.6236922505428517    0.7671208852038269 Bi
   0.4484896162956172    0.7162848431354443    0.7671208852038269 Bi
   0.3929340607400618    0.8088774357280369    0.7671208852038269 Bi
   0.3373785051845062    0.9014700283206296    0.7671208852038269 Bi
   0.2818229496289505    0.9940626209132223    0.7671208852038270 Bi
   0.0040451718511728    0.1236922505428518    0.7671208852038270 Bi
   0.9484896162956172    0.2162848431354444    0.7671208852038270 Bi
   0.8929340607400618    0.3088774357280371    0.7671208852038269 Bi
   0.8373785051845062    0.4014700283206295    0.7671208852038269 Bi
   0.7818229496289507    0.4940626209132221    0.7671208852038269 Bi
   0.7262673940733950    0.5866552135058148    0.7671208852038269 Bi
   0.6707118385178396    0.6792478060984075    0.7671208852038269 Bi
   0.6151562829622841    0.7718403986910001    0.7671208852038269 Bi
   0.5596007274067283    0.8644329912835925    0.7671208852038269 Bi
   0.5040451718511729    0.9570255838761850    0.7671208852038269 Bi
   0.0040451718511729    0.4570255838761851    0.7671208852038270 Bi
   0.9484896162956173    0.5496181764687778    0.7671208852038270 Bi
   0.8929340607400619    0.6422107690613702    0.7671208852038269 Bi
   0.8373785051845064    0.7348033616539631    0.7671208852038269 Bi
   0.7818229496289507    0.8273959542465554    0.7671208852038269 Bi
   0.7262673940733951    0.9199885468391481    0.7671208852038269 Bi
   0.6707118385178397    0.0125811394317407    0.7671208852038270 Bi
   0.0040451718511729    0.7903589172095183    0.7671208852038269 Bi
   0.9484896162956172    0.8829515098021111    0.7671208852038269 Bi
   0.8929340607400617    0.9755441023947038    0.7671208852038270 Bi
   0.9279877602364598    0.0250512354806880    0.6873709670584138 Bi
   0.0946544269031266    0.0806067910362436    0.6873709670584138 Bi
   0.0390988713475710    0.1731993836288362    0.6873709670584138 Bi
   0.9835433157920155    0.2657919762214287    0.6873709670584138 Bi
   0.9279877602364601    0.3583845688140214    0.6873709670584138 Bi
   0.3168766491253488    0.0435697539992065    0.6873709670584138 Bi
   0.2613210935697932    0.1361623465917991    0.6873709670584138 Bi
   0.2057655380142377    0.2287549391843917    0.6873709670584138 Bi
   0.1502099824586822    0.3213475317769843    0.6873709670584138 Bi
   0.0946544269031267    0.4139401243695768    0.6873709670584138 Bi
   0.0390988713475710    0.5065327169621695    0.6873709670584138 Bi
   0.9835433157920155    0.5991253095547620    0.6873709670584138 Bi
   0.9279877602364599    0.6917179021473545    0.6873709670584138 Bi
   0.4835433157920154    0.0991253095547621    0.6873709670584138 Bi
   0.4279877602364600    0.1917179021473546    0.6873709670584138 Bi
   0.3724322046809046    0.2843104947399474    0.6873709670584138 Bi
   0.3168766491253489    0.3769030873325399    0.6873709670584138 Bi
   0.2613210935697933    0.4694956799251324    0.6873709670584138 Bi
   0.2057655380142379    0.5620882725177250    0.6873709670584138 Bi
   0.1502099824586822    0.6546808651103175    0.6873709670584138 Bi
   0.0946544269031266    0.7472734577029101    0.6873709670584138 Bi
   0.0390988713475710    0.8398660502955027    0.6873709670584138 Bi
   0.9835433157920155    0.9324586428880952    0.6873709670584138 Bi
   0.7057655380142377    0.0620882725177250    0.6873709670584138 Bi
   0.6502099824586822    0.1546808651103176    0.6873709670584138 Bi
   0.5946544269031269    0.2472734577029103    0.6873709670584138 Bi
   0.5390988713475711    0.3398660502955028    0.6873709670584138 Bi
   0.4835433157920154    0.4324586428880954    0.6873709670584138 Bi
   0.4279877602364599    0.5250512354806879    0.6873709670584138 Bi
   0.3724322046809044    0.6176438280732804    0.6873709670584138 Bi
   0.3168766491253488    0.7102364206658731    0.6873709670584138 Bi
   0.2613210935697933    0.8028290132584655    0.6873709670584138 Bi
   0.2057655380142377    0.8954216058510585    0.6873709670584138 Bi
   0.1502099824586821    0.9880141984436510    0.6873709670584138 Bi
   0.8724322046809045    0.1176438280732806    0.6873709670584138 Bi
   0.8168766491253490    0.2102364206658732    0.6873709670584138 Bi
   0.7613210935697931    0.3028290132584658    0.6873709670584138 Bi
   0.7057655380142376    0.3954216058510583    0.6873709670584138 Bi
   0.6502099824586822    0.4880141984436510    0.6873709670584138 Bi
   0.5946544269031266    0.5806067910362436    0.6873709670584138 Bi
   0.5390988713475711    0.6731993836288361    0.6873709670584138 Bi
   0.4835433157920156    0.7657919762214287    0.6873709670584138 Bi
   0.4279877602364599    0.8583845688140210    0.6873709670584138 Bi
   0.3724322046809044    0.9509771614066137    0.6873709670584138 Bi
   0.8724322046809047    0.4509771614066140    0.6873709670584138 Bi
   0.8168766491253490    0.5435697539992065    0.6873709670584138 Bi
   0.7613210935697934    0.6361623465917989    0.6873709670584138 Bi
   0.7057655380142378    0.7287549391843918    0.6873709670584138 Bi
   0.6502099824586822    0.8213475317769843    0.6873709670584138 Bi
   0.5946544269031268    0.9139401243695768    0.6873709670584138 Bi
   0.5390988713475712    0.0065327169621693    0.6873709670584138 Bi
   0.8724322046809044    0.7843104947399471    0.6873709670584138 Bi
   0.8168766491253490    0.8769030873325399    0.6873709670584138 Bi
   0.7613210935697932    0.9694956799251325    0.6873709670584138 Bi
   0.9260322234919185    0.0238646112505132    0.5665155440360311 Bi
   0.0926988901585850    0.0794201668060688    0.5665155440360310 Bi
   0.0371433346030294    0.1720127593986613    0.5665155440360310 Bi
   0.9815877790474739    0.2646053519912540    0.5665155440360310 Bi
   0.9260322234919182    0.3571979445838465    0.5665155440360311 Bi
   0.3149211123808073    0.0423831297690317    0.5665155440360310 Bi
   0.2593655568252517    0.1349757223616243    0.5665155440360310 Bi
   0.2038100012696961    0.2275683149542169    0.5665155440360310 Bi
   0.1482544457141405    0.3201609075468095    0.5665155440360311 Bi
   0.0926988901585850    0.4127535001394020    0.5665155440360311 Bi
   0.0371433346030295    0.5053460927319946    0.5665155440360311 Bi
   0.9815877790474740    0.5979386853245873    0.5665155440360311 Bi
   0.9260322234919186    0.6905312779171798    0.5665155440360310 Bi
   0.4815877790474739    0.0979386853245873    0.5665155440360310 Bi
   0.4260322234919185    0.1905312779171799    0.5665155440360311 Bi
   0.3704766679363628    0.2831238705097724    0.5665155440360311 Bi
   0.3149211123808073    0.3757164631023650    0.5665155440360311 Bi
   0.2593655568252518    0.4683090556949577    0.5665155440360311 Bi
   0.2038100012696962    0.5609016482875503    0.5665155440360311 Bi
   0.1482544457141407    0.6534942408801429    0.5665155440360311 Bi
   0.0926988901585849    0.7460868334727353    0.5665155440360310 Bi
   0.0371433346030294    0.8386794260653279    0.5665155440360310 Bi
   0.9815877790474739    0.9312720186579205    0.5665155440360310 Bi
   0.7038100012696962    0.0609016482875502    0.5665155440360310 Bi
   0.6482544457141406    0.1534942408801428    0.5665155440360311 Bi
   0.5926988901585849    0.2460868334727354    0.5665155440360311 Bi
   0.5371433346030295    0.3386794260653279    0.5665155440360311 Bi
   0.4815877790474738    0.4312720186579206    0.5665155440360311 Bi
   0.4260322234919184    0.5238646112505131    0.5665155440360311 Bi
   0.3704766679363629    0.6164572038431058    0.5665155440360310 Bi
   0.3149211123808073    0.7090497964356984    0.5665155440360310 Bi
   0.2593655568252516    0.8016423890282909    0.5665155440360310 Bi
   0.2038100012696963    0.8942349816208834    0.5665155440360310 Bi
   0.1482544457141406    0.9868275742134762    0.5665155440360310 Bi
   0.8704766679363628    0.1164572038431058    0.5665155440360311 Bi
   0.8149211123808072    0.2090497964356983    0.5665155440360311 Bi
   0.7593655568252520    0.3016423890282910    0.5665155440360311 Bi
   0.7038100012696963    0.3942349816208835    0.5665155440360311 Bi
   0.6482544457141405    0.4868275742134761    0.5665155440360311 Bi
   0.5926988901585850    0.5794201668060688    0.5665155440360310 Bi
   0.5371433346030295    0.6720127593986613    0.5665155440360310 Bi
   0.4815877790474740    0.7646053519912539    0.5665155440360310 Bi
   0.4260322234919184    0.8571979445838463    0.5665155440360310 Bi
   0.3704766679363627    0.9497905371764389    0.5665155440360310 Bi
   0.8704766679363627    0.4497905371764392    0.5665155440360310 Bi
   0.8149211123808074    0.5423831297690317    0.5665155440360310 Bi
   0.7593655568252519    0.6349757223616241    0.5665155440360310 Bi
   0.7038100012696964    0.7275683149542169    0.5665155440360310 Bi
   0.6482544457141407    0.8201609075468095    0.5665155440360310 Bi
   0.5926988901585850    0.9127535001394020    0.5665155440360310 Bi
   0.5371433346030297    0.0053460927319948    0.5665155440360310 Bi
   0.8704766679363628    0.7831238705097723    0.5665155440360310 Bi
   0.8149211123808073    0.8757164631023651    0.5665155440360310 Bi
   0.7593655568252516    0.9683090556949576    0.5665155440360310 Bi
   0.0177330382067645    0.9810181730458288    0.4870641414761426 Bi
   0.1843997048734312    0.0365737286013843    0.4870641414761425 Bi
   0.1288441493178756    0.1291663211939769    0.4870641414761425 Bi
   0.0732885937623201    0.2217589137865695    0.4870641414761425 Bi
   0.0177330382067646    0.3143515063791620    0.4870641414761425 Bi
   0.4066219270956535    0.9995366915643473    0.4870641414761425 Bi
   0.3510663715400979    0.0921292841569399    0.4870641414761425 Bi
   0.2955108159845423    0.1847218767495325    0.4870641414761425 Bi
   0.2399552604289868    0.2773144693421251    0.4870641414761425 Bi
   0.1843997048734312    0.3699070619347177    0.4870641414761425 Bi
   0.1288441493178757    0.4624996545273104    0.4870641414761425 Bi
   0.0732885937623202    0.5550922471199028    0.4870641414761426 Bi
   0.0177330382067647    0.6476848397124954    0.4870641414761426 Bi
   0.5732885937623201    0.0550922471199029    0.4870641414761425 Bi
   0.5177330382067648    0.1476848397124954    0.4870641414761425 Bi
   0.4621774826512091    0.2402774323050881    0.4870641414761425 Bi
   0.4066219270956536    0.3328700248976806    0.4870641414761425 Bi
   0.3510663715400980    0.4254626174902733    0.4870641414761426 Bi
   0.2955108159845424    0.5180552100828658    0.4870641414761426 Bi
   0.2399552604289869    0.6106478026754584    0.4870641414761426 Bi
   0.1843997048734312    0.7032403952680508    0.4870641414761426 Bi
   0.1288441493178757    0.7958329878606435    0.4870641414761426 Bi
   0.0732885937623202    0.8884255804532362    0.4870641414761426 Bi
   0.7955108159845425    0.0180552100828658    0.4870641414761425 Bi
   0.7399552604289868    0.1106478026754584    0.4870641414761425 Bi
   0.6843997048734313    0.2032403952680510    0.4870641414761425 Bi
   0.6288441493178758    0.2958329878606436    0.4870641414761426 Bi
   0.5732885937623202    0.3884255804532362    0.4870641414761426 Bi
   0.5177330382067646    0.4810181730458287    0.4870641414761426 Bi
   0.4621774826512091    0.5736107656384213    0.4870641414761426 Bi
   0.4066219270956535    0.6662033582310138    0.4870641414761426 Bi
   0.3510663715400978    0.7587959508236064    0.4870641414761426 Bi
   0.2955108159845424    0.8513885434161991    0.4870641414761426 Bi
   0.2399552604289870    0.9439811360087916    0.4870641414761426 Bi
   0.9621774826512092    0.0736107656384214    0.4870641414761425 Bi
   0.9066219270956536    0.1662033582310140    0.4870641414761425 Bi
   0.8510663715400980    0.2587959508236066    0.4870641414761426 Bi
   0.7955108159845424    0.3513885434161991    0.4870641414761426 Bi
   0.7399552604289870    0.4439811360087917    0.4870641414761426 Bi
   0.6843997048734313    0.5365737286013843    0.4870641414761426 Bi
   0.6288441493178756    0.6291663211939770    0.4870641414761426 Bi
   0.5732885937623201    0.7217589137865696    0.4870641414761426 Bi
   0.5177330382067648    0.8143515063791619    0.4870641414761426 Bi
   0.4621774826512089    0.9069440989717547    0.4870641414761426 Bi
   0.9621774826512092    0.4069440989717547    0.4870641414761425 Bi
   0.9066219270956538    0.4995366915643473    0.4870641414761426 Bi
   0.8510663715400980    0.5921292841569397    0.4870641414761426 Bi
   0.7955108159845425    0.6847218767495324    0.4870641414761426 Bi
   0.7399552604289868    0.7773144693421250    0.4870641414761426 Bi
   0.6843997048734313    0.8699070619347177    0.4870641414761426 Bi
   0.6288441493178758    0.9624996545273100    0.4870641414761426 Bi
   0.9621774826512091    0.7402774323050879    0.4870641414761426 Bi
   0.9066219270956535    0.8328700248976806    0.4870641414761426 Bi
   0.8510663715400978    0.9254626174902733    0.4870641414761426 Bi
   0.9484375736665895    0.9941486204667506    0.2000427878291579 Se
   0.1022837275127434    0.0326101589282890    0.2000427878291579 Se
   0.2817709069999229    0.9941486204667506    0.2000427878291579 Se
   0.0766427018717178    0.1095332358513659    0.2000427878291579 Se
   0.2561298813588973    0.0710716973898275    0.2000427878291579 Se
   0.4356170608460765    0.0326101589282890    0.2000427878291579 Se
   0.6151042403332561    0.9941486204667506    0.2000427878291579 Se
   0.0510016762306921    0.1864563127744428    0.2000427878291579 Se
   0.2304888557178716    0.1479947743129043    0.2000427878291579 Se
   0.4099760352050511    0.1095332358513659    0.2000427878291579 Se
   0.5894632146922304    0.0710716973898275    0.2000427878291579 Se
   0.7689503941794099    0.0326101589282890    0.2000427878291579 Se
   0.0253606505896665    0.2633793896975197    0.2000427878291579 Se
   0.2048478300768459    0.2249178512359812    0.2000427878291579 Se
   0.3843350095640254    0.1864563127744428    0.2000427878291579 Se
   0.5638221890512051    0.1479947743129043    0.2000427878291579 Se
   0.7433093685383845    0.1095332358513659    0.2000427878291579 Se
   0.9227965480255642    0.0710716973898275    0.2000427878291579 Se
   0.9997196249486409    0.3403024666205967    0.2000427878291579 Se
   0.1792068044358203    0.3018409281590582    0.2000427878291579 Se
   0.3586939839229998    0.2633793896975197    0.2000427878291579 Se
   0.5381811634101793    0.2249178512359813    0.2000427878291579 Se
   0.7176683428973589    0.1864563127744428    0.2000427878291579 Se
   0.8971555223845383    0.1479947743129043    0.2000427878291579 Se
   0.9740785993076152    0.4172255435436734    0.2000427878291579 Se
   0.1535657787947947    0.3787640050821349    0.2000427878291579 Se
   0.3330529582819742    0.3403024666205966    0.2000427878291579 Se
   0.5125401377691536    0.3018409281590581    0.2000427878291579 Se
   0.6920273172563333    0.2633793896975197    0.2000427878291579 Se
   0.8715144967435127    0.2249178512359812    0.2000427878291579 Se
   0.9484375736665895    0.4941486204667505    0.2000427878291579 Se
   0.1279247531537690    0.4556870820052119    0.2000427878291579 Se
   0.3074119326409485    0.4172255435436736    0.2000427878291579 Se
   0.4868991121281278    0.3787640050821351    0.2000427878291579 Se
   0.6663862916153075    0.3403024666205967    0.2000427878291579 Se
   0.8458734711024870    0.3018409281590582    0.2000427878291579 Se
   0.1022837275127434    0.5326101589282889    0.2000427878291579 Se
   0.2817709069999229    0.4941486204667504    0.2000427878291579 Se
   0.4612580864871022    0.4556870820052119    0.2000427878291579 Se
   0.6407452659742819    0.4172255435436734    0.2000427878291579 Se
   0.8202324454614615    0.3787640050821351    0.2000427878291579 Se
   0.0766427018717177    0.6095332358513658    0.2000427878291579 Se
   0.2561298813588973    0.5710716973898272    0.2000427878291579 Se
   0.4356170608460769    0.5326101589282888    0.2000427878291579 Se
   0.6151042403332563    0.4941486204667504    0.2000427878291579 Se
   0.7945914198204358    0.4556870820052119    0.2000427878291579 Se
   0.0510016762306921    0.6864563127744427    0.2000427878291579 Se
   0.2304888557178716    0.6479947743129042    0.2000427878291579 Se
   0.4099760352050509    0.6095332358513658    0.2000427878291579 Se
   0.5894632146922307    0.5710716973898272    0.2000427878291579 Se
   0.7689503941794101    0.5326101589282889    0.2000427878291579 Se
   0.0253606505896665    0.7633793896975196    0.2000427878291579 Se
   0.2048478300768459    0.7249178512359812    0.2000427878291579 Se
   0.3843350095640254    0.6864563127744427    0.2000427878291579 Se
   0.5638221890512051    0.6479947743129042    0.2000427878291579 Se
   0.7433093685383845    0.6095332358513658    0.2000427878291579 Se
   0.9227965480255641    0.5710716973898272    0.2000427878291579 Se
   0.9997196249486408    0.8403024666205966    0.2000427878291579 Se
   0.1792068044358203    0.8018409281590581    0.2000427878291579 Se