{'film_sl_vectors': array([[ 16.68331135,   7.22408573,  -0.        ],
       [-12.51248351,  43.34451436,   0.        ]]), 'substrate_sl_vectors': array([[-1.42108547e-14,  1.79972417e+01,  0.00000000e+00],
       [ 4.50264202e+01,  5.99908057e+00, -0.00000000e+00]]), 'film_vectors': array([[ 4.17082784,  0.        ,  0.        ],
       [-2.08541392,  3.61204286,  0.        ]]), 'substrate_vectors': array([[ 3.46357078,  0.        ,  0.        ],
       [-1.73178539,  2.99954028,  0.        ]]), 'film_transformation': array([[ 1., 22.],
       [ 0., 54.]]), 'substrate_transformation': array([[ 1., 28.],
       [ 0., 78.]]), 'strain': Strain([[-9.98898924e-03 -3.55000375e-03  0.00000000e+00]
 [-3.55000375e-03  6.25011440e-03  0.00000000e+00]
 [ 0.00000000e+00  0.00000000e+00 -2.22044605e-16]]), 'von_mises_strain': 0.01030822199052739, 'termination': ('default', 'default'), 'film_thickness': 1, 'substrate_thickness': 1, 'signed_angle': 66.58677555277436, 'decomposition_angle': 113.61575258484689}