Nb44 Bi60 Se178
1.0
  12.4880820500921388    0.0000000000000000    0.0000000000000008
   0.9606216973314926   18.3023014306860858    0.0000000000000011
   0.0000000000000000    0.0000000000000000   44.4624158930297497
Nb Bi Se
44 60 178
direct
   0.5991080220577620    0.6512868660958147    0.3447480443666843 Nb
   0.5081989311486710    0.8331050479139968    0.3447480443666843 Nb
   0.5991080220577618    0.1512868660958147    0.3447480443666843 Nb
   0.5081989311486707    0.3331050479139965    0.3447480443666843 Nb
   0.4172898402395798    0.5149232297321784    0.3447480443666843 Nb
   0.3263807493304891    0.6967414115503603    0.3447480443666843 Nb
   0.2354716584213982    0.8785595933685424    0.3447480443666843 Nb
   0.4172898402395798    0.0149232297321784    0.3447480443666843 Nb
   0.3263807493304889    0.1967414115503602    0.3447480443666843 Nb
   0.2354716584213981    0.3785595933685421    0.3447480443666843 Nb
   0.1445625675123070    0.5603777751867239    0.3447480443666843 Nb
   0.0536534766032161    0.7421959570049058    0.3447480443666843 Nb
   0.9627443856941253    0.9240141388230876    0.3447480443666843 Nb
   0.1445625675123071    0.0603777751867238    0.3447480443666843 Nb
   0.0536534766032162    0.2421959570049057    0.3447480443666843 Nb
   0.9627443856941253    0.4240141388230876    0.3447480443666843 Nb
   0.8718352947850343    0.6058323206412694    0.3447480443666843 Nb
   0.7809262038759436    0.7876505024594512    0.3447480443666843 Nb
   0.8718352947850344    0.1058323206412694    0.3447480443666843 Nb
   0.7809262038759436    0.2876505024594512    0.3447480443666843 Nb
   0.6900171129668528    0.4694686842776331    0.3447480443666843 Nb
   0.6900171129668525    0.9694686842776329    0.3447480443666843 Nb
   0.5983430090434281    0.6511906164514277    0.2065134900768984 Nb
   0.5074339181343371    0.8330087982696093    0.2065134900768984 Nb
   0.5983430090434281    0.1511906164514276    0.2065134900768983 Nb
   0.5074339181343372    0.3330087982696096    0.2065134900768984 Nb
   0.4165248272252464    0.5148269800877915    0.2065134900768984 Nb
   0.3256157363161553    0.6966451619059733    0.2065134900768984 Nb
   0.2347066454070644    0.8784633437241551    0.2065134900768984 Nb
   0.4165248272252464    0.0148269800877913    0.2065134900768984 Nb
   0.3256157363161553    0.1966451619059733    0.2065134900768984 Nb
   0.2347066454070642    0.3784633437241551    0.2065134900768984 Nb
   0.1437975544979734    0.5602815255423367    0.2065134900768984 Nb
   0.0528884635888827    0.7420997073605188    0.2065134900768984 Nb
   0.9619793726797915    0.9239178891787005    0.2065134900768984 Nb
   0.1437975544979736    0.0602815255423368    0.2065134900768984 Nb
   0.0528884635888826    0.2420997073605186    0.2065134900768984 Nb
   0.9619793726797916    0.4239178891787005    0.2065134900768984 Nb
   0.8710702817707008    0.6057360709968823    0.2065134900768984 Nb
   0.7801611908616098    0.7875542528150641    0.2065134900768984 Nb
   0.8710702817707008    0.1057360709968822    0.2065134900768984 Nb
   0.7801611908616098    0.2875542528150642    0.2065134900768984 Nb
   0.6892520999525189    0.4693724346332460    0.2065134900768984 Nb
   0.6892520999525189    0.9693724346332458    0.2065134900768984 Nb
   0.4691008843696424    0.0073205926852711    0.7944001694220465 Bi
   0.1357675510363091    0.0073205926852711    0.7944001694220465 Bi
   0.8024342177029756    0.0073205926852711    0.7944001694220465 Bi
   0.6024342177029756    0.2073205926852712    0.7944001694220465 Bi
   0.2691008843696424    0.2073205926852711    0.7944001694220465 Bi
   0.9357675510363092    0.2073205926852711    0.7944001694220465 Bi
   0.7357675510363091    0.4073205926852712    0.7944001694220465 Bi
   0.4024342177029758    0.4073205926852712    0.7944001694220465 Bi
   0.0691008843696425    0.4073205926852712    0.7944001694220465 Bi
   0.5357675510363091    0.6073205926852712    0.7944001694220465 Bi
   0.2024342177029759    0.6073205926852714    0.7944001694220465 Bi
   0.8691008843696426    0.6073205926852712    0.7944001694220465 Bi
   0.6691008843696425    0.8073205926852715    0.7944001694220465 Bi
   0.3357675510363091    0.8073205926852712    0.7944001694220465 Bi
   0.0024342177029760    0.8073205926852715    0.7944001694220465 Bi
   0.6242085385934318    0.0720785720332599    0.7047369577364245 Bi
   0.2908752052600987    0.0720785720332600    0.7047369577364245 Bi
   0.9575418719267653    0.0720785720332599    0.7047369577364245 Bi
   0.7575418719267648    0.2720785720332600    0.7047369577364245 Bi
   0.4242085385934320    0.2720785720332600    0.7047369577364245 Bi
   0.0908752052600987    0.2720785720332600    0.7047369577364245 Bi
   0.8908752052600983    0.4720785720332600    0.7047369577364245 Bi
   0.5575418719267651    0.4720785720332600    0.7047369577364245 Bi
   0.2242085385934319    0.4720785720332599    0.7047369577364245 Bi
   0.6908752052600988    0.6720785720332603    0.7047369577364245 Bi
   0.3575418719267652    0.6720785720332603    0.7047369577364245 Bi
   0.0242085385934321    0.6720785720332602    0.7047369577364245 Bi
   0.8242085385934319    0.8720785720332602    0.7047369577364245 Bi
   0.4908752052600988    0.8720785720332602    0.7047369577364245 Bi
   0.1575418719267654    0.8720785720332600    0.7047369577364245 Bi
   0.6284803858220613    0.0694110607506134    0.5688586317166681 Bi
   0.2951470524887280    0.0694110607506135    0.5688586317166681 Bi
   0.9618137191553948    0.0694110607506134    0.5688586317166681 Bi
   0.7618137191553945    0.2694110607506134    0.5688586317166681 Bi
   0.4284803858220613    0.2694110607506134    0.5688586317166681 Bi
   0.0951470524887280    0.2694110607506134    0.5688586317166681 Bi
   0.8951470524887282    0.4694110607506136    0.5688586317166681 Bi
   0.5618137191553947    0.4694110607506136    0.5688586317166681 Bi
   0.2284803858220614    0.4694110607506136    0.5688586317166681 Bi
   0.6951470524887280    0.6694110607506139    0.5688586317166681 Bi
   0.3618137191553948    0.6694110607506137    0.5688586317166681 Bi
   0.0284803858220616    0.6694110607506135    0.5688586317166681 Bi
   0.8284803858220615    0.8694110607506138    0.5688586317166681 Bi
   0.4951470524887280    0.8694110607506135    0.5688586317166681 Bi
   0.1618137191553947    0.8694110607506135    0.5688586317166681 Bi
   0.3160608966922583    0.9354040125426490    0.4795310425214355 Bi
   0.9827275633589251    0.9354040125426490    0.4795310425214355 Bi
   0.6493942300255918    0.9354040125426490    0.4795310425214355 Bi
   0.4493942300255916    0.1354040125426491    0.4795310425214355 Bi
   0.1160608966922584    0.1354040125426490    0.4795310425214355 Bi
   0.7827275633589252    0.1354040125426491    0.4795310425214355 Bi
   0.5827275633589248    0.3354040125426492    0.4795310425214355 Bi
   0.2493942300255916    0.3354040125426492    0.4795310425214355 Bi
   0.9160608966922585    0.3354040125426490    0.4795310425214355 Bi
   0.3827275633589252    0.5354040125426491    0.4795310425214355 Bi
   0.0493942300255919    0.5354040125426494    0.4795310425214355 Bi
   0.7160608966922585    0.5354040125426492    0.4795310425214355 Bi
   0.5160608966922585    0.7354040125426492    0.4795310425214355 Bi
   0.1827275633589251    0.7354040125426492    0.4795310425214355 Bi
   0.8493942300255918    0.7354040125426492    0.4795310425214355 Bi
   0.7195399565721488    0.5754046147839877    0.1686817922364798 Se
   0.6286308656630577    0.7572227966021695    0.1686817922364798 Se
   0.7195399565721486    0.0754046147839876    0.1686817922364797 Se
   0.6286308656630577    0.2572227966021695    0.1686817922364798 Se
   0.5377217747539670    0.4390409784203514    0.1686817922364798 Se
   0.4468126838448759    0.6208591602385334    0.1686817922364798 Se
   0.3559035929357849    0.8026773420567154    0.1686817922364798 Se
   0.5377217747539667    0.9390409784203513    0.1686817922364798 Se
   0.4468126838448758    0.1208591602385331    0.1686817922364798 Se
   0.3559035929357850    0.3026773420567150    0.1686817922364798 Se
   0.2649945020266939    0.4844955238748967    0.1686817922364798 Se
   0.1740854111176031    0.6663137056930786    0.1686817922364798 Se
   0.0831763202085125    0.8481318875112607    0.1686817922364798 Se
   0.2649945020266939    0.9844955238748968    0.1686817922364798 Se
   0.1740854111176031    0.1663137056930786    0.1686817922364798 Se
   0.0831763202085123    0.3481318875112605    0.1686817922364798 Se
   0.9922672292994213    0.5299500693294423    0.1686817922364798 Se
   0.9013581383903305    0.7117682511476242    0.1686817922364798 Se
   0.9922672292994212    0.0299500693294422    0.1686817922364798 Se
   0.9013581383903304    0.2117682511476241    0.1686817922364798 Se
   0.8104490474812396    0.3935864329658059    0.1686817922364798 Se
   0.8104490474812396    0.8935864329658060    0.1686817922364798 Se
   0.7506215147469150    0.6815742392512834    0.3069115334886654 Se
   0.6597124238378235    0.8633924210694651    0.3069115334886654 Se
   0.7506215147469147    0.1815742392512833    0.3069115334886655 Se
   0.6597124238378238    0.3633924210694654    0.3069115334886655 Se
   0.5688033329287329    0.5452106028876471    0.3069115334886655 Se
   0.4778942420196423    0.7270287847058290    0.3069115334886655 Se
   0.3869851511105510    0.9088469665240108    0.3069115334886654 Se
   0.5688033329287329    0.0452106028876470    0.3069115334886654 Se
   0.4778942420196419    0.2270287847058289    0.3069115334886654 Se
   0.3869851511105510    0.4088469665240108    0.3069115334886655 Se
   0.2960760602014600    0.5906651483421925    0.3069115334886655 Se
   0.2051669692923692    0.7724833301603744    0.3069115334886655 Se
   0.1142578783832783    0.9543015119785563    0.3069115334886654 Se
   0.2960760602014600    0.0906651483421925    0.3069115334886654 Se
   0.2051669692923693    0.2724833301603743    0.3069115334886654 Se
   0.1142578783832783    0.4543015119785563    0.3069115334886654 Se
   0.0233487874741875    0.6361196937967379    0.3069115334886655 Se
   0.9324396965650965    0.8179378756149200    0.3069115334886655 Se
   0.0233487874741873    0.1361196937967379    0.3069115334886654 Se
   0.9324396965650964    0.3179378756149199    0.3069115334886654 Se
   0.8415306056560055    0.4997560574331016    0.3069115334886655 Se
   0.8415306056560055    0.9997560574331016    0.3069115334886654 Se
   0.7196100354477661    0.5754363784979653    0.2443510399711945 Se
   0.6287009445386751    0.7572545603161471    0.2443510399711945 Se
   0.7196100354477660    0.0754363784979651    0.2443510399711945 Se
   0.6287009445386752    0.2572545603161471    0.2443510399711945 Se
   0.5377918536295843    0.4390727421343289    0.2443510399711945 Se
   0.4468827627204934    0.6208909239525108    0.2443510399711945 Se
   0.3559736718114023    0.8027091057706925    0.2443510399711945 Se
   0.5377918536295841    0.9390727421343288    0.2443510399711945 Se
   0.4468827627204933    0.1208909239525107    0.2443510399711945 Se
   0.3559736718114023    0.3027091057706925    0.2443510399711945 Se
   0.2650645809023113    0.4845272875888742    0.2443510399711945 Se
   0.1741554899932207    0.6663454694070562    0.2443510399711945 Se
   0.0832463990841298    0.8481636512252383    0.2443510399711945 Se
   0.2650645809023114    0.9845272875888743    0.2443510399711945 Se
   0.1741554899932206    0.1663454694070562    0.2443510399711945 Se
   0.0832463990841297    0.3481636512252381    0.2443510399711945 Se
   0.9923373081750388    0.5299818330434199    0.2443510399711945 Se
   0.9014282172659480    0.7118000148616017    0.2443510399711945 Se
   0.9923373081750387    0.0299818330434198    0.2443510399711945 Se
   0.9014282172659479    0.2118000148616017    0.2443510399711945 Se
   0.8105191263568569    0.3936181966797834    0.2443510399711945 Se
   0.8105191263568572    0.8936181966797836    0.2443510399711945 Se
   0.7506810224352747    0.6816132554685389    0.3825808312104175 Se
   0.6597719315261839    0.8634314372867208    0.3825808312104175 Se
   0.7506810224352743    0.1816132554685389    0.3825808312104175 Se
   0.6597719315261836    0.3634314372867208    0.3825808312104175 Se
   0.5688628406170925    0.5452496191049027    0.3825808312104175 Se
   0.4779537497080015    0.7270678009230844    0.3825808312104175 Se
   0.3870446587989109    0.9088859827412664    0.3825808312104175 Se
   0.5688628406170926    0.0452496191049025    0.3825808312104175 Se
   0.4779537497080015    0.2270678009230844    0.3825808312104175 Se
   0.3870446587989106    0.4088859827412664    0.3825808312104175 Se
   0.2961355678898198    0.5907041645594480    0.3825808312104175 Se
   0.2052264769807290    0.7725223463776301    0.3825808312104175 Se
   0.1143173860716379    0.9543405281958117    0.3825808312104175 Se
   0.2961355678898197    0.0907041645594480    0.3825808312104175 Se
   0.2052264769807289    0.2725223463776298    0.3825808312104175 Se
   0.1143173860716380    0.4543405281958118    0.3825808312104175 Se
   0.0234082951625472    0.6361587100139937    0.3825808312104175 Se
   0.9324992042534564    0.8179768918321757    0.3825808312104175 Se
   0.0234082951625470    0.1361587100139934    0.3825808312104175 Se
   0.9324992042534561    0.3179768918321754    0.3825808312104175 Se
   0.8415901133443652    0.4997950736503571    0.3825808312104175 Se
   0.8415901133443652    0.9997950736503571    0.3825808312104175 Se
   0.6254601869021241    0.0742983574610279    0.8313182077635203 Se
   0.2921268535687907    0.0742983574610278    0.8313182077635203 Se
   0.9587935202354575    0.0742983574610277    0.8313182077635203 Se
   0.7587935202354571    0.2742983574610279    0.8313182077635203 Se
   0.4254601869021239    0.2742983574610278    0.8313182077635203 Se
   0.0921268535687908    0.2742983574610278    0.8313182077635203 Se
   0.8921268535687907    0.4742983574610279    0.8313182077635203 Se
   0.5587935202354574    0.4742983574610278    0.8313182077635203 Se
   0.2254601869021240    0.4742983574610278    0.8313182077635203 Se
   0.6921268535687908    0.6742983574610278    0.8313182077635203 Se
   0.3587935202354574    0.6742983574610278    0.8313182077635203 Se
   0.0254601869021241    0.6742983574610277    0.8313182077635203 Se
   0.8254601869021243    0.8742983574610284    0.8313182077635203 Se
   0.4921268535687909    0.8742983574610278    0.8313182077635203 Se
   0.1587935202354575    0.8742983574610279    0.8313182077635203 Se
   0.3122490812090545    0.9396585177016402    0.7495056388254162 Se
   0.9789157478757213    0.9396585177016402    0.7495056388254162 Se
   0.6455824145423881    0.9396585177016402    0.7495056388254162 Se
   0.4455824145423878    0.1396585177016402    0.7495056388254162 Se
   0.1122490812090546    0.1396585177016402    0.7495056388254162 Se
   0.7789157478757213    0.1396585177016403    0.7495056388254162 Se
   0.5789157478757210    0.3396585177016404    0.7495056388254162 Se
   0.2455824145423880    0.3396585177016404    0.7495056388254162 Se
   0.9122490812090547    0.3396585177016402    0.7495056388254162 Se
   0.3789157478757213    0.5396585177016403    0.7495056388254162 Se
   0.0455824145423880    0.5396585177016403    0.7495056388254162 Se
   0.7122490812090546    0.5396585177016404    0.7495056388254162 Se
   0.5122490812090548    0.7396585177016405    0.7495056388254162 Se
   0.1789157478757213    0.7396585177016404    0.7495056388254162 Se
   0.8455824145423879    0.7396585177016405    0.7495056388254162 Se
   0.4688453448929937    0.0061659127648161    0.6677845033197066 Se
   0.1355120115596606    0.0061659127648160    0.6677845033197066 Se
   0.8021786782263269    0.0061659127648160    0.6677845033197066 Se
   0.6021786782263271    0.2061659127648161    0.6677845033197066 Se
   0.2688453448929938    0.2061659127648161    0.6677845033197066 Se
   0.9355120115596607    0.2061659127648161    0.6677845033197066 Se
   0.7355120115596603    0.4061659127648162    0.6677845033197066 Se
   0.4021786782263272    0.4061659127648161    0.6677845033197066 Se
   0.0688453448929939    0.4061659127648161    0.6677845033197066 Se
   0.5355120115596606    0.6061659127648164    0.6677845033197066 Se
   0.2021786782263273    0.6061659127648161    0.6677845033197066 Se
   0.8688453448929940    0.6061659127648162    0.6677845033197066 Se
   0.6688453448929940    0.8061659127648163    0.6677845033197066 Se
   0.3355120115596607    0.8061659127648163    0.6677845033197066 Se
   0.0021786782263272    0.8061659127648163    0.6677845033197066 Se
   0.3157898706501171    0.9355597249596277    0.6055580957863086 Se
   0.9824565373167838    0.9355597249596277    0.6055580957863086 Se
   0.6491232039834505    0.9355597249596277    0.6055580957863086 Se
   0.4491232039834503    0.1355597249596277    0.6055580957863086 Se
   0.1157898706501172    0.1355597249596277    0.6055580957863086 Se
   0.7824565373167840    0.1355597249596278    0.6055580957863086 Se
   0.5824565373167838    0.3355597249596279    0.6055580957863086 Se
   0.2491232039834506    0.3355597249596279    0.6055580957863086 Se
   0.9157898706501173    0.3355597249596278    0.6055580957863086 Se
   0.3824565373167839    0.5355597249596278    0.6055580957863086 Se
   0.0491232039834506    0.5355597249596278    0.6055580957863086 Se
   0.7157898706501173    0.5355597249596279    0.6055580957863086 Se
   0.5157898706501173    0.7355597249596281    0.6055580957863086 Se
   0.1824565373167839    0.7355597249596280    0.6055580957863086 Se
   0.8491232039834505    0.7355597249596280    0.6055580957863086 Se
   0.4729072519819960    0.0023024919303646    0.5241890951556732 Se
   0.1395739186486628    0.0023024919303646    0.5241890951556732 Se
   0.8062405853153294    0.0023024919303647    0.5241890951556732 Se
   0.6062405853153293    0.2023024919303646    0.5241890951556732 Se
   0.2729072519819962    0.2023024919303646    0.5241890951556732 Se
   0.9395739186486629    0.2023024919303646    0.5241890951556732 Se
   0.7395739186486626    0.4023024919303648    0.5241890951556732 Se
   0.4062405853153295    0.4023024919303648    0.5241890951556732 Se
   0.0729072519819962    0.4023024919303647    0.5241890951556732 Se
   0.5395739186486629    0.6023024919303649    0.5241890951556732 Se
   0.2062405853153295    0.6023024919303648    0.5241890951556732 Se
   0.8729072519819961    0.6023024919303648    0.5241890951556732 Se
   0.6729072519819961    0.8023024919303650    0.5241890951556732 Se
   0.3395739186486627    0.8023024919303647    0.5241890951556732 Se
   0.0062405853153296    0.8023024919303646    0.5241890951556732 Se
   0.6290028089491837    0.0695982060719723    0.4427015086099987 Se
   0.2956694756158506    0.0695982060719723    0.4427015086099987 Se
   0.9623361422825174    0.0695982060719722    0.4427015086099987 Se
   0.7623361422825169    0.2695982060719723    0.4427015086099987 Se
   0.4290028089491838    0.2695982060719723    0.4427015086099987 Se
   0.0956694756158507    0.2695982060719723    0.4427015086099987 Se
   0.8956694756158505    0.4695982060719723    0.4427015086099987 Se
   0.5623361422825172    0.4695982060719724    0.4427015086099987 Se
   0.2290028089491839    0.4695982060719723    0.4427015086099987 Se
   0.6956694756158505    0.6695982060719726    0.4427015086099987 Se
   0.3623361422825174    0.6695982060719725    0.4427015086099987 Se
   0.0290028089491841    0.6695982060719724    0.4427015086099987 Se
   0.8290028089491839    0.8695982060719730    0.4427015086099987 Se
   0.4956694756158505    0.8695982060719726    0.4427015086099987 Se
   0.1623361422825175    0.8695982060719726    0.4427015086099987 Se
