Nb50 Bi64 Se196
1.0
  17.3178539089013910    0.0000000000000000    0.0000000000000011
   8.6589269536193854   14.9977014246162028    0.0000000000000011
   0.0000000000000000    0.0000000000000000   44.4624158930297497
Nb Bi Se
50 64 196
direct
   0.7417856211148779    0.5456459351620601    0.3447480443666843 Nb
   0.5417856211148782    0.5456459351620599    0.3447480443666843 Nb
   0.3417856211148781    0.5456459351620601    0.3447480443666843 Nb
   0.1417856211148781    0.5456459351620602    0.3447480443666843 Nb
   0.9417856211148781    0.5456459351620601    0.3447480443666843 Nb
   0.7417856211148781    0.3456459351620599    0.3447480443666843 Nb
   0.5417856211148782    0.3456459351620600    0.3447480443666843 Nb
   0.3417856211148780    0.3456459351620600    0.3447480443666843 Nb
   0.1417856211148781    0.3456459351620600    0.3447480443666843 Nb
   0.9417856211148780    0.3456459351620599    0.3447480443666843 Nb
   0.7417856211148781    0.1456459351620599    0.3447480443666843 Nb
   0.5417856211148782    0.1456459351620599    0.3447480443666843 Nb
   0.3417856211148781    0.1456459351620599    0.3447480443666843 Nb
   0.1417856211148781    0.1456459351620599    0.3447480443666843 Nb
   0.9417856211148780    0.1456459351620599    0.3447480443666843 Nb
   0.7417856211148781    0.9456459351620599    0.3447480443666843 Nb
   0.5417856211148782    0.9456459351620597    0.3447480443666843 Nb
   0.3417856211148780    0.9456459351620599    0.3447480443666843 Nb
   0.1417856211148781    0.9456459351620599    0.3447480443666843 Nb
   0.9417856211148778    0.9456459351620599    0.3447480443666843 Nb
   0.7417856211148783    0.7456459351620599    0.3447480443666843 Nb
   0.5417856211148780    0.7456459351620598    0.3447480443666843 Nb
   0.3417856211148781    0.7456459351620598    0.3447480443666843 Nb
   0.1417856211148781    0.7456459351620598    0.3447480443666843 Nb
   0.9417856211148781    0.7456459351620599    0.3447480443666843 Nb
   0.7420541232910092    0.5449954248928383    0.2065134900768984 Nb
   0.5420541232910095    0.5449954248928383    0.2065134900768984 Nb
   0.3420541232910092    0.5449954248928381    0.2065134900768984 Nb
   0.1420541232910092    0.5449954248928381    0.2065134900768984 Nb
   0.9420541232910090    0.5449954248928380    0.2065134900768984 Nb
   0.7420541232910094    0.3449954248928382    0.2065134900768984 Nb
   0.5420541232910091    0.3449954248928382    0.2065134900768984 Nb
   0.3420541232910091    0.3449954248928382    0.2065134900768984 Nb
   0.1420541232910091    0.3449954248928382    0.2065134900768984 Nb
   0.9420541232910089    0.3449954248928383    0.2065134900768984 Nb
   0.7420541232910093    0.1449954248928381    0.2065134900768984 Nb
   0.5420541232910093    0.1449954248928381    0.2065134900768984 Nb
   0.3420541232910092    0.1449954248928381    0.2065134900768984 Nb
   0.1420541232910092    0.1449954248928381    0.2065134900768984 Nb
   0.9420541232910095    0.1449954248928382    0.2065134900768984 Nb
   0.7420541232910093    0.9449954248928381    0.2065134900768984 Nb
   0.5420541232910092    0.9449954248928381    0.2065134900768984 Nb
   0.3420541232910092    0.9449954248928381    0.2065134900768984 Nb
   0.1420541232910092    0.9449954248928381    0.2065134900768984 Nb
   0.9420541232910093    0.9449954248928381    0.2065134900768984 Nb
   0.7420541232910092    0.7449954248928380    0.2065134900768984 Nb
   0.5420541232910094    0.7449954248928381    0.2065134900768984 Nb
   0.3420541232910093    0.7449954248928382    0.2065134900768984 Nb
   0.1420541232910092    0.7449954248928381    0.2065134900768984 Nb
   0.9420541232910093    0.7449954248928381    0.2065134900768984 Nb
   0.0658549038428954    0.5281137375836980    0.7944001694220465 Bi
   0.0658549038428952    0.2781137375836980    0.7944001694220465 Bi
   0.0658549038428952    0.0281137375836980    0.7944001694220465 Bi
   0.0658549038428952    0.7781137375836981    0.7944001694220465 Bi
   0.3158549038428953    0.5281137375836980    0.7944001694220465 Bi
   0.3158549038428952    0.2781137375836980    0.7944001694220465 Bi
   0.3158549038428953    0.0281137375836980    0.7944001694220465 Bi
   0.3158549038428953    0.7781137375836981    0.7944001694220465 Bi
   0.5658549038428955    0.5281137375836980    0.7944001694220465 Bi
   0.5658549038428954    0.2781137375836980    0.7944001694220465 Bi
   0.5658549038428952    0.0281137375836980    0.7944001694220465 Bi
   0.5658549038428955    0.7781137375836981    0.7944001694220465 Bi
   0.8158549038428955    0.5281137375836980    0.7944001694220465 Bi
   0.8158549038428953    0.2781137375836980    0.7944001694220465 Bi
   0.8158549038428953    0.0281137375836980    0.7944001694220465 Bi
   0.8158549038428955    0.7781137375836981    0.7944001694220465 Bi
   0.1468023780278813    0.6120654885775457    0.7047369577364245 Bi
   0.1468023780278814    0.3620654885775456    0.7047369577364245 Bi
   0.1468023780278813    0.1120654885775457    0.7047369577364245 Bi
   0.1468023780278814    0.8620654885775457    0.7047369577364245 Bi
   0.3968023780278813    0.6120654885775457    0.7047369577364245 Bi
   0.3968023780278814    0.3620654885775456    0.7047369577364245 Bi
   0.3968023780278813    0.1120654885775457    0.7047369577364245 Bi
   0.3968023780278815    0.8620654885775457    0.7047369577364245 Bi
   0.6468023780278813    0.6120654885775457    0.7047369577364245 Bi
   0.6468023780278813    0.3620654885775456    0.7047369577364245 Bi
   0.6468023780278814    0.1120654885775457    0.7047369577364245 Bi
   0.6468023780278813    0.8620654885775457    0.7047369577364245 Bi
   0.8968023780278812    0.6120654885775457    0.7047369577364245 Bi
   0.8968023780278813    0.3620654885775456    0.7047369577364245 Bi
   0.8968023780278813    0.1120654885775457    0.7047369577364245 Bi
   0.8968023780278813    0.8620654885775457    0.7047369577364245 Bi
   0.1434679889245732    0.6166031296403409    0.5688586317166681 Bi
   0.1434679889245731    0.3666031296403411    0.5688586317166681 Bi
   0.1434679889245732    0.1166031296403410    0.5688586317166681 Bi
   0.1434679889245732    0.8666031296403409    0.5688586317166681 Bi
   0.3934679889245734    0.6166031296403409    0.5688586317166681 Bi
   0.3934679889245732    0.3666031296403411    0.5688586317166681 Bi
   0.3934679889245731    0.1166031296403410    0.5688586317166681 Bi
   0.3934679889245732    0.8666031296403409    0.5688586317166681 Bi
   0.6434679889245732    0.6166031296403409    0.5688586317166681 Bi
   0.6434679889245734    0.3666031296403411    0.5688586317166681 Bi
   0.6434679889245732    0.1166031296403410    0.5688586317166681 Bi
   0.6434679889245735    0.8666031296403409    0.5688586317166681 Bi
   0.8934679889245734    0.6166031296403409    0.5688586317166681 Bi
   0.8934679889245731    0.3666031296403411    0.5688586317166681 Bi
   0.8934679889245732    0.1166031296403410    0.5688586317166681 Bi
   0.8934679889245735    0.8666031296403409    0.5688586317166682 Bi
   0.9759591786646178    0.4492920368969709    0.4795310425214356 Bi
   0.9759591786646177    0.1992920368969710    0.4795310425214356 Bi
   0.9759591786646177    0.9492920368969711    0.4795310425214356 Bi
   0.9759591786646177    0.6992920368969711    0.4795310425214356 Bi
   0.2259591786646179    0.4492920368969709    0.4795310425214356 Bi
   0.2259591786646178    0.1992920368969710    0.4795310425214356 Bi
   0.2259591786646176    0.9492920368969711    0.4795310425214356 Bi
   0.2259591786646178    0.6992920368969711    0.4795310425214356 Bi
   0.4759591786646177    0.4492920368969709    0.4795310425214356 Bi
   0.4759591786646180    0.1992920368969710    0.4795310425214356 Bi
   0.4759591786646178    0.9492920368969711    0.4795310425214356 Bi
   0.4759591786646176    0.6992920368969711    0.4795310425214355 Bi
   0.7259591786646175    0.4492920368969709    0.4795310425214355 Bi
   0.7259591786646178    0.1992920368969710    0.4795310425214356 Bi
   0.7259591786646177    0.9492920368969711    0.4795310425214356 Bi
   0.7259591786646179    0.6992920368969711    0.4795310425214355 Bi
   0.8087579357861931    0.6116385822488386    0.1686817922364797 Se
   0.6087579357861933    0.6116385822488385    0.1686817922364797 Se
   0.4087579357861932    0.6116385822488387    0.1686817922364797 Se
   0.2087579357861934    0.6116385822488387    0.1686817922364797 Se
   0.0087579357861933    0.6116385822488387    0.1686817922364797 Se
   0.8087579357861929    0.4116385822488386    0.1686817922364797 Se
   0.6087579357861932    0.4116385822488388    0.1686817922364797 Se
   0.4087579357861931    0.4116385822488388    0.1686817922364797 Se
   0.2087579357861931    0.4116385822488386    0.1686817922364797 Se
   0.0087579357861931    0.4116385822488388    0.1686817922364797 Se
   0.8087579357861934    0.2116385822488387    0.1686817922364797 Se
   0.6087579357861933    0.2116385822488386    0.1686817922364797 Se
   0.4087579357861932    0.2116385822488386    0.1686817922364797 Se
   0.2087579357861931    0.2116385822488386    0.1686817922364797 Se
   0.0087579357861931    0.2116385822488386    0.1686817922364797 Se
   0.8087579357861931    0.0116385822488387    0.1686817922364797 Se
   0.6087579357861934    0.0116385822488385    0.1686817922364797 Se
   0.4087579357861932    0.0116385822488385    0.1686817922364797 Se
   0.2087579357861931    0.0116385822488385    0.1686817922364797 Se
   0.0087579357861931    0.0116385822488385    0.1686817922364797 Se
   0.8087579357861931    0.8116385822488387    0.1686817922364797 Se
   0.6087579357861932    0.8116385822488384    0.1686817922364797 Se
   0.4087579357861933    0.8116385822488384    0.1686817922364797 Se
   0.2087579357861930    0.8116385822488382    0.1686817922364797 Se
   0.0087579357861932    0.8116385822488384    0.1686817922364797 Se
   0.6751380747904853    0.6789716785755698    0.3069115334886653 Se
   0.4751380747904851    0.6789716785755696    0.3069115334886653 Se
   0.2751380747904851    0.6789716785755696    0.3069115334886653 Se
   0.0751380747904852    0.6789716785755698    0.3069115334886653 Se
   0.8751380747904853    0.6789716785755696    0.3069115334886653 Se
   0.6751380747904848    0.4789716785755697    0.3069115334886653 Se
   0.4751380747904851    0.4789716785755697    0.3069115334886653 Se
   0.2751380747904851    0.4789716785755699    0.3069115334886653 Se
   0.0751380747904850    0.4789716785755697    0.3069115334886653 Se
   0.8751380747904850    0.4789716785755698    0.3069115334886653 Se
   0.6751380747904850    0.2789716785755696    0.3069115334886653 Se
   0.4751380747904852    0.2789716785755698    0.3069115334886653 Se
   0.2751380747904851    0.2789716785755698    0.3069115334886653 Se
   0.0751380747904851    0.2789716785755696    0.3069115334886653 Se
   0.8751380747904852    0.2789716785755696    0.3069115334886653 Se
   0.6751380747904852    0.0789716785755697    0.3069115334886653 Se
   0.4751380747904853    0.0789716785755696    0.3069115334886653 Se
   0.2751380747904851    0.0789716785755696    0.3069115334886653 Se
   0.0751380747904851    0.0789716785755696    0.3069115334886653 Se
   0.8751380747904850    0.0789716785755696    0.3069115334886653 Se
   0.6751380747904850    0.8789716785755697    0.3069115334886653 Se
   0.4751380747904851    0.8789716785755696    0.3069115334886653 Se
   0.2751380747904852    0.8789716785755696    0.3069115334886653 Se
   0.0751380747904851    0.8789716785755696    0.3069115334886653 Se
   0.8751380747904851    0.8789716785755695    0.3069115334886653 Se
   0.8087058035542966    0.6117073508349236    0.2443510399711945 Se
   0.6087058035542966    0.6117073508349236    0.2443510399711945 Se
   0.4087058035542968    0.6117073508349238    0.2443510399711945 Se
   0.2087058035542968    0.6117073508349236    0.2443510399711945 Se
   0.0087058035542966    0.6117073508349234    0.2443510399711945 Se
   0.8087058035542966    0.4117073508349237    0.2443510399711945 Se
   0.6087058035542968    0.4117073508349238    0.2443510399711945 Se
   0.4087058035542966    0.4117073508349238    0.2443510399711945 Se
   0.2087058035542964    0.4117073508349237    0.2443510399711945 Se
   0.0087058035542965    0.4117073508349235    0.2443510399711945 Se
   0.8087058035542967    0.2117073508349237    0.2443510399711945 Se
   0.6087058035542968    0.2117073508349235    0.2443510399711945 Se
   0.4087058035542965    0.2117073508349235    0.2443510399711945 Se
   0.2087058035542966    0.2117073508349235    0.2443510399711945 Se
   0.0087058035542966    0.2117073508349234    0.2443510399711945 Se
   0.8087058035542967    0.0117073508349236    0.2443510399711945 Se
   0.6087058035542967    0.0117073508349235    0.2443510399711945 Se
   0.4087058035542966    0.0117073508349235    0.2443510399711945 Se
   0.2087058035542966    0.0117073508349235    0.2443510399711945 Se
   0.0087058035542966    0.0117073508349235    0.2443510399711945 Se
   0.8087058035542967    0.8117073508349235    0.2443510399711945 Se
   0.6087058035542966    0.8117073508349234    0.2443510399711945 Se
   0.4087058035542965    0.8117073508349236    0.2443510399711945 Se
   0.2087058035542967    0.8117073508349236    0.2443510399711945 Se
   0.0087058035542966    0.8117073508349236    0.2443510399711945 Se
   0.6750793537921066    0.6790348912131597    0.3825808312104174 Se
   0.4750793537921065    0.6790348912131597    0.3825808312104175 Se
   0.2750793537921067    0.6790348912131599    0.3825808312104175 Se
   0.0750793537921066    0.6790348912131597    0.3825808312104175 Se
   0.8750793537921067    0.6790348912131596    0.3825808312104175 Se
   0.6750793537921065    0.4790348912131598    0.3825808312104175 Se
   0.4750793537921066    0.4790348912131598    0.3825808312104175 Se
   0.2750793537921065    0.4790348912131598    0.3825808312104175 Se
   0.0750793537921065    0.4790348912131597    0.3825808312104175 Se
   0.8750793537921064    0.4790348912131596    0.3825808312104174 Se
   0.6750793537921067    0.2790348912131598    0.3825808312104175 Se
   0.4750793537921065    0.2790348912131597    0.3825808312104175 Se
   0.2750793537921066    0.2790348912131597    0.3825808312104175 Se
   0.0750793537921065    0.2790348912131596    0.3825808312104175 Se
   0.8750793537921064    0.2790348912131597    0.3825808312104175 Se
   0.6750793537921065    0.0790348912131596    0.3825808312104175 Se
   0.4750793537921066    0.0790348912131595    0.3825808312104175 Se
   0.2750793537921066    0.0790348912131596    0.3825808312104175 Se
   0.0750793537921065    0.0790348912131596    0.3825808312104175 Se
   0.8750793537921063    0.0790348912131596    0.3825808312104175 Se
   0.6750793537921065    0.8790348912131597    0.3825808312104175 Se
   0.4750793537921065    0.8790348912131595    0.3825808312104174 Se
   0.2750793537921064    0.8790348912131597    0.3825808312104175 Se
   0.0750793537921065    0.8790348912131597    0.3825808312104175 Se
   0.8750793537921064    0.8790348912131597    0.3825808312104175 Se
   0.1495771098125912    0.6118943320951807    0.8313182077635203 Se
   0.1495771098125911    0.3618943320951808    0.8313182077635203 Se
   0.1495771098125911    0.1118943320951809    0.8313182077635203 Se
   0.1495771098125911    0.8618943320951810    0.8313182077635203 Se
   0.3995771098125911    0.6118943320951807    0.8313182077635203 Se
   0.3995771098125911    0.3618943320951808    0.8313182077635203 Se
   0.3995771098125911    0.1118943320951809    0.8313182077635203 Se
   0.3995771098125913    0.8618943320951810    0.8313182077635203 Se
   0.6495771098125913    0.6118943320951807    0.8313182077635203 Se
   0.6495771098125911    0.3618943320951808    0.8313182077635203 Se
   0.6495771098125910    0.1118943320951809    0.8313182077635203 Se
   0.6495771098125911    0.8618943320951810    0.8313182077635203 Se
   0.8995771098125913    0.6118943320951807    0.8313182077635203 Se
   0.8995771098125913    0.3618943320951808    0.8313182077635203 Se
   0.8995771098125911    0.1118943320951809    0.8313182077635203 Se
   0.8995771098125909    0.8618943320951810    0.8313182077635203 Se
   0.9812773101133567    0.4443059227050725    0.7495056388254160 Se
   0.9812773101133566    0.1943059227050727    0.7495056388254160 Se
   0.9812773101133566    0.9443059227050726    0.7495056388254160 Se
   0.9812773101133567    0.6943059227050726    0.7495056388254160 Se
   0.2312773101133566    0.4443059227050725    0.7495056388254160 Se
   0.2312773101133566    0.1943059227050727    0.7495056388254160 Se
   0.2312773101133566    0.9443059227050726    0.7495056388254160 Se
   0.2312773101133567    0.6943059227050726    0.7495056388254160 Se
   0.4812773101133568    0.4443059227050725    0.7495056388254160 Se
   0.4812773101133565    0.1943059227050727    0.7495056388254160 Se
   0.4812773101133564    0.9443059227050726    0.7495056388254160 Se
   0.4812773101133567    0.6943059227050726    0.7495056388254160 Se
   0.7312773101133567    0.4443059227050725    0.7495056388254160 Se
   0.7312773101133566    0.1943059227050727    0.7495056388254160 Se
   0.7312773101133566    0.9443059227050726    0.7495056388254160 Se
   0.7312773101133569    0.6943059227050726    0.7495056388254160 Se
   0.0644115539423265    0.5284994229364390    0.6677845033197066 Se
   0.0644115539423264    0.2784994229364391    0.6677845033197066 Se
   0.0644115539423264    0.0284994229364391    0.6677845033197066 Se
   0.0644115539423264    0.7784994229364391    0.6677845033197066 Se
   0.3144115539423264    0.5284994229364390    0.6677845033197066 Se
   0.3144115539423263    0.2784994229364391    0.6677845033197066 Se
   0.3144115539423264    0.0284994229364391    0.6677845033197066 Se
   0.3144115539423263    0.7784994229364391    0.6677845033197066 Se
   0.5644115539423264    0.5284994229364390    0.6677845033197066 Se
   0.5644115539423266    0.2784994229364391    0.6677845033197066 Se
   0.5644115539423263    0.0284994229364391    0.6677845033197066 Se
   0.5644115539423266    0.7784994229364391    0.6677845033197066 Se
   0.8144115539423264    0.5284994229364390    0.6677845033197066 Se
   0.8144115539423264    0.2784994229364391    0.6677845033197066 Se
   0.8144115539423264    0.0284994229364391    0.6677845033197066 Se
   0.8144115539423266    0.7784994229364391    0.6677845033197067 Se
   0.9761538191858411    0.4490109111568755    0.6055580957863087 Se
   0.9761538191858411    0.1990109111568758    0.6055580957863087 Se
   0.9761538191858411    0.9490109111568757    0.6055580957863087 Se
   0.9761538191858410    0.6990109111568757    0.6055580957863087 Se
   0.2261538191858411    0.4490109111568755    0.6055580957863087 Se
   0.2261538191858410    0.1990109111568758    0.6055580957863087 Se
   0.2261538191858410    0.9490109111568757    0.6055580957863087 Se
   0.2261538191858410    0.6990109111568757    0.6055580957863087 Se
   0.4761538191858410    0.4490109111568755    0.6055580957863087 Se
   0.4761538191858413    0.1990109111568758    0.6055580957863087 Se
   0.4761538191858410    0.9490109111568757    0.6055580957863087 Se
   0.4761538191858409    0.6990109111568757    0.6055580957863087 Se
   0.7261538191858415    0.4490109111568755    0.6055580957863087 Se
   0.7261538191858410    0.1990109111568758    0.6055580957863087 Se
   0.7261538191858410    0.9490109111568757    0.6055580957863087 Se
   0.7261538191858409    0.6990109111568757    0.6055580957863087 Se
   0.0595822778992622    0.5334775636704165    0.5241890951556734 Se
   0.0595822778992623    0.2834775636704165    0.5241890951556734 Se
   0.0595822778992621    0.0334775636704165    0.5241890951556734 Se
   0.0595822778992622    0.7834775636704165    0.5241890951556734 Se
   0.3095822778992622    0.5334775636704165    0.5241890951556734 Se
   0.3095822778992623    0.2834775636704165    0.5241890951556734 Se
   0.3095822778992622    0.0334775636704165    0.5241890951556734 Se
   0.3095822778992623    0.7834775636704165    0.5241890951556734 Se
   0.5595822778992621    0.5334775636704165    0.5241890951556734 Se
   0.5595822778992622    0.2834775636704165    0.5241890951556734 Se
   0.5595822778992621    0.0334775636704165    0.5241890951556734 Se
   0.5595822778992622    0.7834775636704165    0.5241890951556734 Se
   0.8095822778992621    0.5334775636704165    0.5241890951556734 Se
   0.8095822778992621    0.2834775636704165    0.5241890951556734 Se
   0.8095822778992621    0.0334775636704165    0.5241890951556734 Se
   0.8095822778992620    0.7834775636704165    0.5241890951556734 Se
   0.1437019205762720    0.6169013743250034    0.4427015086099987 Se
   0.1437019205762718    0.3669013743250035    0.4427015086099987 Se
   0.1437019205762717    0.1169013743250035    0.4427015086099987 Se
   0.1437019205762715    0.8669013743250036    0.4427015086099987 Se
   0.3937019205762717    0.6169013743250034    0.4427015086099987 Se
   0.3937019205762717    0.3669013743250035    0.4427015086099987 Se
   0.3937019205762718    0.1169013743250035    0.4427015086099987 Se
   0.3937019205762716    0.8669013743250036    0.4427015086099987 Se
   0.6437019205762722    0.6169013743250034    0.4427015086099987 Se
   0.6437019205762721    0.3669013743250035    0.4427015086099987 Se
   0.6437019205762717    0.1169013743250035    0.4427015086099987 Se
   0.6437019205762715    0.8669013743250036    0.4427015086099987 Se
   0.8937019205762724    0.6169013743250034    0.4427015086099987 Se
   0.8937019205762722    0.3669013743250035    0.4427015086099987 Se
   0.8937019205762721    0.1169013743250035    0.4427015086099987 Se
   0.8937019205762720    0.8669013743250036    0.4427015086099987 Se
