Nb124 Bi168 Se500
1.0
  19.2843459671147208    0.0000000000000000    0.0000000000000012
   0.0000000020903117   33.4014670062269303    0.0000000000000020
   0.0000000000000000    0.0000000000000000   49.9893053307188922
Nb Bi Se
124 168 500
direct
   0.1635103046196245    0.8706340080357322    0.3566429020965913 Nb
   0.3409296594583343    0.8545049757776678    0.3566429020965913 Nb
   0.5183490142970437    0.8383759435196033    0.3566429020965913 Nb
   0.6957683691357537    0.8222469112615388    0.3566429020965913 Nb
   0.8731877239744628    0.8061178790034740    0.3566429020965913 Nb
   0.0506070788131729    0.7899888467454095    0.3566429020965913 Nb
   0.2280264336518827    0.7738598144873451    0.3566429020965913 Nb
   0.4054457884905923    0.7577307822292807    0.3566429020965913 Nb
   0.5828651433293019    0.7416017499712160    0.3566429020965913 Nb
   0.7602844981680118    0.7254727177131515    0.3566429020965913 Nb
   0.9377038530067217    0.7093436854550871    0.3566429020965913 Nb
   0.1151232078454312    0.6932146531970227    0.3566429020965913 Nb
   0.2925425626841406    0.6770856209389581    0.3566429020965913 Nb
   0.4699619175228504    0.6609565886808936    0.3566429020965913 Nb
   0.6473812723615600    0.6448275564228292    0.3566429020965913 Nb
   0.8248006272002698    0.6286985241647647    0.3566429020965913 Nb
   0.0022199820389796    0.6125694919066998    0.3566429020965913 Nb
   0.1796393368776892    0.5964404596486355    0.3566429020965913 Nb
   0.3570586917163986    0.5803114273905708    0.3566429020965913 Nb
   0.5344780465551084    0.5641823951325063    0.3566429020965913 Nb
   0.7118974013938180    0.5480533628744420    0.3566429020965913 Nb
   0.8893167562325276    0.5319243306163776    0.3566429020965913 Nb
   0.0667361110712376    0.5157952983583127    0.3566429020965913 Nb
   0.2441554659099472    0.4996662661002482    0.3566429020965913 Nb
   0.4215748207486570    0.4835372338421838    0.3566429020965913 Nb
   0.5989941755873663    0.4674082015841192    0.3566429020965913 Nb
   0.7764135304260761    0.4512791693260549    0.3566429020965913 Nb
   0.9538328852647858    0.4351501370679902    0.3566429020965912 Nb
   0.1312522401034954    0.4190211048099256    0.3566429020965913 Nb
   0.3086715949422053    0.4028920725518612    0.3566429020965913 Nb
   0.4860909497809150    0.3867630402937968    0.3566429020965913 Nb
   0.6635103046196247    0.3706340080357322    0.3566429020965913 Nb
   0.8409296594583344    0.3545049757776679    0.3566429020965913 Nb
   0.0183490142970440    0.3383759435196030    0.3566429020965912 Nb
   0.1957683691357538    0.3222469112615386    0.3566429020965912 Nb
   0.3731877239744635    0.3061178790034741    0.3566429020965913 Nb
   0.5506070788131731    0.2899888467454096    0.3566429020965913 Nb
   0.7280264336518827    0.2738598144873451    0.3566429020965913 Nb
   0.9054457884905924    0.2577307822292808    0.3566429020965913 Nb
   0.0828651433293020    0.2416017499712160    0.3566429020965912 Nb
   0.2602844981680117    0.2254727177131514    0.3566429020965912 Nb
   0.4377038530067214    0.2093436854550871    0.3566429020965913 Nb
   0.6151232078454310    0.1932146531970226    0.3566429020965913 Nb
   0.7925425626841409    0.1770856209389580    0.3566429020965913 Nb
   0.9699619175228505    0.1609565886808935    0.3566429020965912 Nb
   0.1473812723615601    0.1448275564228289    0.3566429020965912 Nb
   0.3248006272002697    0.1286985241647644    0.3566429020965912 Nb
   0.5022199820389794    0.1125694919066999    0.3566429020965912 Nb
   0.6796393368776891    0.0964404596486355    0.3566429020965913 Nb
   0.8570586917163989    0.0803114273905710    0.3566429020965913 Nb
   0.0344780465551086    0.0641823951325063    0.3566429020965912 Nb
   0.2118974013938183    0.0480533628744418    0.3566429020965912 Nb
   0.3893167562325279    0.0319243306163773    0.3566429020965912 Nb
   0.5667361110712376    0.0157952983583128    0.3566429020965912 Nb
   0.7441554659099471    0.9996662661002483    0.3566429020965912 Nb
   0.9215748207486567    0.9835372338421838    0.3566429020965913 Nb
   0.0989941755873666    0.9674082015841192    0.3566429020965912 Nb
   0.2764135304260762    0.9512791693260547    0.3566429020965913 Nb
   0.4538328852647858    0.9351501370679902    0.3566429020965913 Nb
   0.6312522401034957    0.9190211048099257    0.3566429020965913 Nb
   0.8086715949422053    0.9028920725518613    0.3566429020965913 Nb
   0.9860909497809150    0.8867630402937967    0.3566429020965913 Nb
   0.1634819592276442    0.8703408984035386    0.2336917587878816 Nb
   0.3409013140663541    0.8542118661454743    0.2336917587878816 Nb
   0.5183206689050633    0.8380828338874097    0.2336917587878816 Nb
   0.6957400237437734    0.8219538016293453    0.2336917587878816 Nb
   0.8731593785824829    0.8058247693712807    0.2336917587878816 Nb
   0.0505787334211928    0.7896957371132161    0.2336917587878816 Nb
   0.2279980882599024    0.7735667048551516    0.2336917587878816 Nb
   0.4054174430986122    0.7574376725970869    0.2336917587878816 Nb
   0.5828367979373213    0.7413086403390224    0.2336917587878816 Nb
   0.7602561527760313    0.7251796080809580    0.2336917587878816 Nb
   0.9376755076147411    0.7090505758228935    0.2336917587878816 Nb
   0.1150948624534508    0.6929215435648289    0.2336917587878816 Nb
   0.2925142172921604    0.6767925113067645    0.2336917587878816 Nb
   0.4699335721308702    0.6606634790486998    0.2336917587878816 Nb
   0.6473529269695798    0.6445344467906354    0.2336917587878816 Nb
   0.8247722818082894    0.6284054145325711    0.2336917587878816 Nb
   0.0021916366469992    0.6122763822745063    0.2336917587878816 Nb
   0.1796109914857088    0.5961473500164418    0.2336917587878816 Nb
   0.3570303463244184    0.5800183177583773    0.2336917587878816 Nb
   0.5344497011631283    0.5638892855003129    0.2336917587878816 Nb
   0.7118690560018378    0.5477602532422484    0.2336917587878816 Nb
   0.8892884108405472    0.5316312209841838    0.2336917587878816 Nb
   0.0667077656792572    0.5155021887261192    0.2336917587878816 Nb
   0.2441271205179668    0.4993731564680546    0.2336917587878816 Nb
   0.4215464753566765    0.4832441242099902    0.2336917587878816 Nb
   0.5989658301953862    0.4671150919519258    0.2336917587878816 Nb
   0.7763851850340959    0.4509860596938613    0.2336917587878816 Nb
   0.9538045398728056    0.4348570274357968    0.2336917587878816 Nb
   0.1312238947115152    0.4187279951777321    0.2336917587878816 Nb
   0.3086432495502248    0.4025989629196677    0.2336917587878816 Nb
   0.4860626043889346    0.3864699306616033    0.2336917587878816 Nb
   0.6634819592276442    0.3703408984035388    0.2336917587878816 Nb
   0.8409013140663543    0.3542118661454743    0.2336917587878816 Nb
   0.0183206689050636    0.3380828338874095    0.2336917587878816 Nb
   0.1957400237437733    0.3219538016293451    0.2336917587878816 Nb
   0.3731593785824831    0.3058247693712806    0.2336917587878816 Nb
   0.5505787334211927    0.2896957371132160    0.2336917587878816 Nb
   0.7279980882599022    0.2735667048551516    0.2336917587878816 Nb
   0.9054174430986121    0.2574376725970873    0.2336917587878816 Nb
   0.0828367979373218    0.2413086403390226    0.2336917587878816 Nb
   0.2602561527760314    0.2251796080809579    0.2336917587878816 Nb
   0.4376755076147411    0.2090505758228935    0.2336917587878816 Nb
   0.6150948624534507    0.1929215435648291    0.2336917587878816 Nb
   0.7925142172921603    0.1767925113067645    0.2336917587878816 Nb
   0.9699335721308701    0.1606634790487000    0.2336917587878816 Nb
   0.1473529269695798    0.1445344467906354    0.2336917587878816 Nb
   0.3247722818082895    0.1284054145325710    0.2336917587878816 Nb
   0.5021916366469991    0.1122763822745064    0.2336917587878816 Nb
   0.6796109914857087    0.0961473500164419    0.2336917587878816 Nb
   0.8570303463244185    0.0800183177583774    0.2336917587878816 Nb
   0.0344497011631283    0.0638892855003129    0.2336917587878816 Nb
   0.2118690560018379    0.0477602532422483    0.2336917587878816 Nb
   0.3892884108405476    0.0316312209841838    0.2336917587878816 Nb
   0.5667077656792573    0.0155021887261194    0.2336917587878816 Nb
   0.7441271205179668    0.9993731564680548    0.2336917587878816 Nb
   0.9215464753566763    0.9832441242099903    0.2336917587878816 Nb
   0.0989658301953863    0.9671150919519257    0.2336917587878816 Nb
   0.2763851850340959    0.9509860596938613    0.2336917587878816 Nb
   0.4538045398728055    0.9348570274357968    0.2336917587878816 Nb
   0.6312238947115152    0.9187279951777323    0.2336917587878816 Nb
   0.8086432495502249    0.9025989629196679    0.2336917587878816 Nb
   0.9860626043889349    0.8864699306616032    0.2336917587878816 Nb
   0.0782327779333868    0.0294954940071120    0.7671208852038272 Bi
   0.2210899207905296    0.1247335892452072    0.7671208852038272 Bi
   0.4353756350762439    0.1009240654356834    0.7671208852038272 Bi
   0.6496613493619582    0.0771145416261596    0.7671208852038272 Bi
   0.8639470636476724    0.0533050178166357    0.7671208852038272 Bi
   0.1496613493619582    0.2437812082928262    0.7671208852038272 Bi
   0.3639470636476725    0.2199716844833025    0.7671208852038272 Bi
   0.5782327779333867    0.1961621606737786    0.7671208852038272 Bi
   0.7925184922191009    0.1723526368642548    0.7671208852038272 Bi
   0.0068042065048152    0.1485431130547310    0.7671208852038272 Bi
   0.0782327779333868    0.3628288273404452    0.7671208852038272 Bi
   0.2925184922191011    0.3390193035309214    0.7671208852038272 Bi
   0.5068042065048153    0.3152097797213977    0.7671208852038272 Bi
   0.7210899207905295    0.2914002559118739    0.7671208852038272 Bi
   0.9353756350762438    0.2675907321023501    0.7671208852038272 Bi
   0.2210899207905297    0.4580669225785405    0.7671208852038272 Bi
   0.4353756350762441    0.4342573987690167    0.7671208852038272 Bi
   0.6496613493619582    0.4104478749594929    0.7671208852038272 Bi
   0.8639470636476725    0.3866383511499690    0.7671208852038272 Bi
   0.1496613493619583    0.5771145416261596    0.7671208852038272 Bi
   0.3639470636476727    0.5533050178166359    0.7671208852038272 Bi
   0.5782327779333869    0.5294954940071120    0.7671208852038272 Bi
   0.7925184922191011    0.5056859701975882    0.7671208852038272 Bi
   0.0068042065048154    0.4818764463880644    0.7671208852038272 Bi
   0.0782327779333870    0.6961621606737785    0.7671208852038272 Bi
   0.2925184922191010    0.6723526368642548    0.7671208852038272 Bi
   0.5068042065048155    0.6485431130547308    0.7671208852038272 Bi
   0.7210899207905297    0.6247335892452071    0.7671208852038272 Bi
   0.9353756350762440    0.6009240654356833    0.7671208852038272 Bi
   0.2210899207905299    0.7914002559118738    0.7671208852038272 Bi
   0.4353756350762441    0.7675907321023501    0.7671208852038272 Bi
   0.6496613493619582    0.7437812082928260    0.7671208852038272 Bi
   0.8639470636476725    0.7199716844833025    0.7671208852038272 Bi
   0.1496613493619584    0.9104478749594929    0.7671208852038272 Bi
   0.3639470636476727    0.8866383511499690    0.7671208852038272 Bi
   0.5782327779333869    0.8628288273404453    0.7671208852038272 Bi
   0.7925184922191011    0.8390193035309216    0.7671208852038272 Bi
   0.0068042065048152    0.8152097797213976    0.7671208852038272 Bi
   0.2925184922191012    0.0056859701975881    0.7671208852038272 Bi
   0.5068042065048154    0.9818764463880644    0.7671208852038272 Bi
   0.7210899207905296    0.9580669225785404    0.7671208852038272 Bi
   0.9353756350762440    0.9342573987690168    0.7671208852038272 Bi
   0.0545748558858069    0.9569896960946147    0.6873709670584139 Bi
   0.1974319987429498    0.0522277913327099    0.6873709670584138 Bi
   0.4117177130286641    0.0284182675231861    0.6873709670584138 Bi
   0.6260034273143782    0.0046087437136623    0.6873709670584138 Bi
   0.8402891416000926    0.9807992199041384    0.6873709670584138 Bi
   0.1260034273143784    0.1712754103803290    0.6873709670584138 Bi
   0.3402891416000925    0.1474658865708052    0.6873709670584138 Bi
   0.5545748558858070    0.1236563627612813    0.6873709670584138 Bi
   0.7688605701715212    0.0998468389517575    0.6873709670584138 Bi
   0.9831462844572353    0.0760373151422337    0.6873709670584138 Bi
   0.0545748558858070    0.2903230294279479    0.6873709670584138 Bi
   0.2688605701715213    0.2665135056184241    0.6873709670584138 Bi
   0.4831462844572354    0.2427039818089004    0.6873709670584138 Bi
   0.6974319987429496    0.2188944579993766    0.6873709670584138 Bi
   0.9117177130286639    0.1950849341898527    0.6873709670584138 Bi
   0.1974319987429499    0.3855611246660433    0.6873709670584138 Bi
   0.4117177130286641    0.3617516008565194    0.6873709670584138 Bi
   0.6260034273143783    0.3379420770469956    0.6873709670584138 Bi
   0.8402891416000924    0.3141325532374717    0.6873709670584138 Bi
   0.1260034273143786    0.5046087437136623    0.6873709670584138 Bi
   0.3402891416000927    0.4807992199041386    0.6873709670584138 Bi
   0.5545748558858070    0.4569896960946147    0.6873709670584138 Bi
   0.7688605701715211    0.4331801722850908    0.6873709670584138 Bi
   0.9831462844572357    0.4093706484755671    0.6873709670584138 Bi
   0.0545748558858070    0.6236563627612813    0.6873709670584138 Bi
   0.2688605701715212    0.5998468389517576    0.6873709670584138 Bi
   0.4831462844572356    0.5760373151422336    0.6873709670584138 Bi
   0.6974319987429497    0.5522277913327098    0.6873709670584138 Bi
   0.9117177130286641    0.5284182675231860    0.6873709670584138 Bi
   0.1974319987429499    0.7188944579993766    0.6873709670584138 Bi
   0.4117177130286641    0.6950849341898530    0.6873709670584138 Bi
   0.6260034273143783    0.6712754103803289    0.6873709670584138 Bi
   0.8402891416000929    0.6474658865708052    0.6873709670584138 Bi
   0.1260034273143785    0.8379420770469956    0.6873709670584138 Bi
   0.3402891416000927    0.8141325532374718    0.6873709670584138 Bi
   0.5545748558858070    0.7903230294279480    0.6873709670584138 Bi
   0.7688605701715214    0.7665135056184244    0.6873709670584138 Bi
   0.9831462844572356    0.7427039818089005    0.6873709670584138 Bi
   0.2688605701715213    0.9331801722850909    0.6873709670584138 Bi
   0.4831462844572355    0.9093706484755670    0.6873709670584138 Bi
   0.6974319987429500    0.8855611246660433    0.6873709670584138 Bi
   0.9117177130286642    0.8617516008565195    0.6873709670584138 Bi
   0.0516381318614990    0.9558340480514008    0.5665155440360311 Bi
   0.1944952747186419    0.0510721432894961    0.5665155440360311 Bi
   0.4087809890043562    0.0272626194799723    0.5665155440360311 Bi
   0.6230667032900705    0.0034530956704484    0.5665155440360311 Bi
   0.8373524175757847    0.9796435718609247    0.5665155440360311 Bi
   0.1230667032900705    0.1701197623371151    0.5665155440360311 Bi
   0.3373524175757847    0.1463102385275913    0.5665155440360311 Bi
   0.5516381318614989    0.1225007147180675    0.5665155440360311 Bi
   0.7659238461472132    0.0986911909085437    0.5665155440360311 Bi
   0.9802095604329276    0.0748816670990199    0.5665155440360311 Bi
   0.0516381318614991    0.2891673813847340    0.5665155440360311 Bi
   0.2659238461472133    0.2653578575752103    0.5665155440360311 Bi
   0.4802095604329277    0.2415483337656865    0.5665155440360311 Bi
   0.6944952747186418    0.2177388099561628    0.5665155440360311 Bi
   0.9087809890043562    0.1939292861466389    0.5665155440360311 Bi
   0.1944952747186420    0.3844054766228294    0.5665155440360311 Bi
   0.4087809890043562    0.3605959528133056    0.5665155440360311 Bi
   0.6230667032900704    0.3367864290037818    0.5665155440360311 Bi
   0.8373524175757846    0.3129769051942579    0.5665155440360311 Bi
   0.1230667032900706    0.5034530956704485    0.5665155440360311 Bi
   0.3373524175757848    0.4796435718609247    0.5665155440360311 Bi
   0.5516381318614988    0.4558340480514008    0.5665155440360311 Bi
   0.7659238461472134    0.4320245242418770    0.5665155440360311 Bi
   0.9802095604329276    0.4082150004323533    0.5665155440360311 Bi
   0.0516381318614990    0.6225007147180673    0.5665155440360311 Bi
   0.2659238461472134    0.5986911909085434    0.5665155440360311 Bi
   0.4802095604329277    0.5748816670990198    0.5665155440360311 Bi
   0.6944952747186421    0.5510721432894958    0.5665155440360311 Bi
   0.9087809890043566    0.5272626194799722    0.5665155440360311 Bi
   0.1944952747186420    0.7177388099561627    0.5665155440360311 Bi
   0.4087809890043561    0.6939292861466390    0.5665155440360311 Bi
   0.6230667032900705    0.6701197623371150    0.5665155440360311 Bi
   0.8373524175757848    0.6463102385275913    0.5665155440360311 Bi
   0.1230667032900706    0.8367864290037815    0.5665155440360311 Bi
   0.3373524175757850    0.8129769051942579    0.5665155440360311 Bi
   0.5516381318614990    0.7891673813847342    0.5665155440360311 Bi
   0.7659238461472133    0.7653578575752104    0.5665155440360312 Bi
   0.9802095604329277    0.7415483337656864    0.5665155440360311 Bi
   0.2659238461472136    0.9320245242418771    0.5665155440360311 Bi
   0.4802095604329278    0.9082150004323531    0.5665155440360312 Bi
   0.6944952747186421    0.8844054766228293    0.5665155440360312 Bi
   0.9087809890043562    0.8605959528133056    0.5665155440360312 Bi
   0.9571930142872320    0.0029907009996725    0.4870641414761426 Bi
   0.1000501571443749    0.0982287962377678    0.4870641414761425 Bi
   0.3143358714300892    0.0744192724282439    0.4870641414761425 Bi
   0.5286215857158034    0.0506097486187201    0.4870641414761425 Bi
   0.7429073000015176    0.0268002248091963    0.4870641414761425 Bi
   0.0286215857158035    0.2172764152853868    0.4870641414761425 Bi
   0.2429073000015177    0.1934668914758630    0.4870641414761425 Bi
   0.4571930142872319    0.1696573676663392    0.4870641414761425 Bi
   0.6714787285729462    0.1458478438568154    0.4870641414761425 Bi
   0.8857644428586605    0.1220383200472915    0.4870641414761425 Bi
   0.9571930142872320    0.3363240343330057    0.4870641414761425 Bi
   0.1714787285729463    0.3125145105234821    0.4870641414761425 Bi
   0.3857644428586605    0.2887049867139582    0.4870641414761425 Bi
   0.6000501571443746    0.2648954629044344    0.4870641414761425 Bi
   0.8143358714300892    0.2410859390949106    0.4870641414761426 Bi
   0.1000501571443749    0.4315621295711012    0.4870641414761425 Bi
   0.3143358714300892    0.4077526057615773    0.4870641414761425 Bi
   0.5286215857158032    0.3839430819520535    0.4870641414761426 Bi
   0.7429073000015177    0.3601335581425296    0.4870641414761426 Bi
   0.0286215857158037    0.5506097486187201    0.4870641414761425 Bi
   0.2429073000015177    0.5268002248091964    0.4870641414761426 Bi
   0.4571930142872319    0.5029907009996726    0.4870641414761426 Bi
   0.6714787285729464    0.4791811771901487    0.4870641414761426 Bi
   0.8857644428586606    0.4553716533806249    0.4870641414761426 Bi
   0.9571930142872321    0.6696573676663390    0.4870641414761426 Bi
   0.1714787285729464    0.6458478438568152    0.4870641414761426 Bi
   0.3857644428586607    0.6220383200472915    0.4870641414761426 Bi
   0.6000501571443750    0.5982287962377677    0.4870641414761426 Bi
   0.8143358714300891    0.5744192724282440    0.4870641414761426 Bi
   0.1000501571443751    0.7648954629044346    0.4870641414761426 Bi
   0.3143358714300893    0.7410859390949106    0.4870641414761426 Bi
   0.5286215857158038    0.7172764152853867    0.4870641414761426 Bi
   0.7429073000015181    0.6934668914758629    0.4870641414761426 Bi
   0.0286215857158037    0.8839430819520533    0.4870641414761426 Bi
   0.2429073000015179    0.8601335581425298    0.4870641414761426 Bi
   0.4571930142872322    0.8363240343330057    0.4870641414761426 Bi
   0.6714787285729465    0.8125145105234820    0.4870641414761426 Bi
   0.8857644428586608    0.7887049867139582    0.4870641414761426 Bi
   0.1714787285729464    0.9791811771901485    0.4870641414761425 Bi
   0.3857644428586608    0.9553716533806248    0.4870641414761426 Bi
   0.6000501571443752    0.9315621295711010    0.4870641414761426 Bi
   0.8143358714300893    0.9077526057615772    0.4870641414761426 Bi
   0.0828114296412714    0.9079669271641184    0.2000427878291580 Se
   0.2602307844799812    0.8918378949060539    0.2000427878291580 Se
   0.4376501393186907    0.8757088626479893    0.2000427878291580 Se
   0.6150694941574002    0.8595798303899248    0.2000427878291580 Se
   0.7924888489961098    0.8434507981318602    0.2000427878291580 Se
   0.9699082038348199    0.8273217658737956    0.2000427878291580 Se
   0.1473275586735295    0.8111927336157313    0.2000427878291580 Se
   0.3247469135122393    0.7950637013576666    0.2000427878291580 Se
   0.5021662683509489    0.7789346690996022    0.2000427878291580 Se
   0.6795856231896585    0.7628056368415377    0.2000427878291580 Se
   0.8570049780283682    0.7466766045834732    0.2000427878291580 Se
   0.0344243328670778    0.7305475723254087    0.2000427878291580 Se
   0.2118436877057874    0.7144185400673441    0.2000427878291580 Se
   0.3892630425444972    0.6982895078092797    0.2000427878291580 Se
   0.5666823973832069    0.6821604755512152    0.2000427878291580 Se
   0.7441017522219167    0.6660314432931506    0.2000427878291580 Se
   0.9215211070606262    0.6499024110350859    0.2000427878291580 Se
   0.0989404618993359    0.6337733787770214    0.2000427878291580 Se
   0.2763598167380456    0.6176443465189569    0.2000427878291580 Se
   0.4537791715767554    0.6015153142608924    0.2000427878291580 Se
   0.6311985264154650    0.5853862820028279    0.2000427878291580 Se
   0.8086178812541744    0.5692572497447635    0.2000427878291580 Se
   0.9860372360928843    0.5531282174866988    0.2000427878291580 Se
   0.1634565909315938    0.5369991852286343    0.2000427878291580 Se
   0.3408759457703036    0.5208701529705698    0.2000427878291580 Se
   0.5182953006090134    0.5047411207125054    0.2000427878291580 Se
   0.6957146554477230    0.4886120884544409    0.2000427878291580 Se
   0.8731340102864324    0.4724830561963764    0.2000427878291580 Se
   0.0505533651251422    0.4563540239383117    0.2000427878291580 Se
   0.2279727199638520    0.4402249916802473    0.2000427878291580 Se
   0.4053920748025616    0.4240959594221828    0.2000427878291580 Se
   0.5828114296412713    0.4079669271641183    0.2000427878291580 Se
   0.7602307844799810    0.3918378949060539    0.2000427878291580 Se
   0.9376501393186908    0.3757088626479891    0.2000427878291580 Se
   0.1150694941574005    0.3595798303899246    0.2000427878291580 Se
   0.2924888489961102    0.3434507981318602    0.2000427878291580 Se
   0.4699082038348198    0.3273217658737957    0.2000427878291580 Se
   0.6473275586735293    0.3111927336157311    0.2000427878291580 Se
   0.8247469135122393    0.2950637013576669    0.2000427878291580 Se
   0.0021662683509489    0.2789346690996021    0.2000427878291580 Se
   0.1795856231896586    0.2628056368415375    0.2000427878291580 Se
   0.3570049780283683    0.2466766045834730    0.2000427878291580 Se
   0.5344243328670779    0.2305475723254086    0.2000427878291580 Se
   0.7118436877057875    0.2144185400673441    0.2000427878291580 Se
   0.8892630425444972    0.1982895078092796    0.2000427878291580 Se
   0.0666823973832069    0.1821604755512150    0.2000427878291580 Se
   0.2441017522219164    0.1660314432931505    0.2000427878291580 Se
   0.4215211070606262    0.1499024110350859    0.2000427878291580 Se
   0.5989404618993358    0.1337733787770215    0.2000427878291580 Se
   0.7763598167380453    0.1176443465189570    0.2000427878291580 Se
   0.9537791715767553    0.1015153142608924    0.2000427878291580 Se
   0.1311985264154649    0.0853862820028279    0.2000427878291580 Se
   0.3086178812541746    0.0692572497447634    0.2000427878291580 Se
   0.4860372360928842    0.0531282174866989    0.2000427878291580 Se
   0.6634565909315939    0.0369991852286345    0.2000427878291580 Se
   0.8408759457703033    0.0208701529705699    0.2000427878291580 Se
   0.0182953006090134    0.0047411207125053    0.2000427878291580 Se
   0.1957146554477230    0.9886120884544408    0.2000427878291580 Se
   0.3731340102864326    0.9724830561963763    0.2000427878291580 Se
   0.5505533651251422    0.9563540239383119    0.2000427878291580 Se
   0.7279727199638520    0.9402249916802474    0.2000427878291580 Se
   0.9053920748025619    0.9240959594221829    0.2000427878291580 Se
   0.1796248236449697    0.9297716624032052    0.3229896502366214 Se
   0.3570441784836796    0.9136426301451406    0.3229896502366214 Se
   0.5344635333223893    0.8975135978870761    0.3229896502366214 Se
   0.7118828881610990    0.8813845656290117    0.3229896502366214 Se
   0.8893022429998084    0.8652555333709472    0.3229896502366214 Se
   0.0667215978385185    0.8491265011128825    0.3229896502366214 Se
   0.2441409526772282    0.8329974688548182    0.3229896502366214 Se
   0.4215603075159378    0.8168684365967536    0.3229896502366214 Se
   0.5989796623546473    0.8007394043386891    0.3229896502366214 Se
   0.7763990171933571    0.7846103720806245    0.3229896502366214 Se
   0.9538183720320669    0.7684813398225601    0.3229896502366214 Se
   0.1312377268707764    0.7523523075644957    0.3229896502366214 Se
   0.3086570817094861    0.7362232753064309    0.3229896502366214 Se
   0.4860764365481956    0.7200942430483667    0.3229896502366214 Se
   0.6634957913869053    0.7039652107903022    0.3229896502366214 Se
   0.8409151462256150    0.6878361785322376    0.3229896502366214 Se
   0.0183345010643249    0.6717071462741731    0.3229896502366213 Se
   0.1957538559030346    0.6555781140161084    0.3229896502366214 Se
   0.3731732107417442    0.6394490817580439    0.3229896502366214 Se
   0.5505925655804538    0.6233200494999794    0.3229896502366214 Se
   0.7280119204191633    0.6071910172419149    0.3229896502366214 Se
   0.9054312752578729    0.5910619849838505    0.3229896502366214 Se
   0.0828506300965830    0.5749329527257857    0.3229896502366213 Se
   0.2602699849352925    0.5588039204677212    0.3229896502366214 Se
   0.4376893397740023    0.5426748882096566    0.3229896502366214 Se
   0.6151086946127120    0.5265458559515923    0.3229896502366214 Se
   0.7925280494514216    0.5104168236935277    0.3229896502366214 Se
   0.9699474042901312    0.4942877914354631    0.3229896502366213 Se
   0.1473667591288409    0.4781587591773988    0.3229896502366213 Se
   0.3247861139675506    0.4620297269193341    0.3229896502366213 Se
   0.5022054688062604    0.4459006946612697    0.3229896502366214 Se
   0.6796248236449699    0.4297716624032053    0.3229896502366214 Se
   0.8570441784836796    0.4136426301451409    0.3229896502366214 Se
   0.0344635333223895    0.3975135978870762    0.3229896502366213 Se
   0.2118828881610992    0.3813845656290115    0.3229896502366213 Se
   0.3893022429998088    0.3652555333709471    0.3229896502366213 Se
   0.5667215978385185    0.3491265011128826    0.3229896502366213 Se
   0.7441409526772281    0.3329974688548182    0.3229896502366214 Se
   0.9215603075159378    0.3168684365967538    0.3229896502366214 Se
   0.0989796623546475    0.3007394043386892    0.3229896502366213 Se
   0.2763990171933572    0.2846103720806246    0.3229896502366213 Se
   0.4538183720320668    0.2684813398225600    0.3229896502366213 Se
   0.6312377268707763    0.2523523075644957    0.3229896502366213 Se
   0.8086570817094862    0.2362232753064311    0.3229896502366214 Se
   0.9860764365481959    0.2200942430483665    0.3229896502366213 Se
   0.1634957913869055    0.2039652107903019    0.3229896502366213 Se
   0.3409151462256152    0.1878361785322375    0.3229896502366213 Se
   0.5183345010643249    0.1717071462741730    0.3229896502366213 Se
   0.6957538559030346    0.1555781140161085    0.3229896502366213 Se
   0.8731732107417444    0.1394490817580440    0.3229896502366213 Se
   0.0505925655804540    0.1233200494999794    0.3229896502366213 Se
   0.2280119204191636    0.1071910172419149    0.3229896502366213 Se
   0.4054312752578732    0.0910619849838504    0.3229896502366213 Se
   0.5828506300965830    0.0749329527257860    0.3229896502366213 Se
   0.7602699849352927    0.0588039204677214    0.3229896502366213 Se
   0.9376893397740022    0.0426748882096568    0.3229896502366213 Se
   0.1151086946127120    0.0265458559515923    0.3229896502366213 Se
   0.2925280494514218    0.0104168236935278    0.3229896502366213 Se
   0.4699474042901313    0.9942877914354633    0.3229896502366213 Se
   0.6473667591288410    0.9781587591773988    0.3229896502366213 Se
   0.8247861139675504    0.9620297269193344    0.3229896502366213 Se
   0.0022054688062605    0.9459006946612697    0.3229896502366214 Se
   0.0828354925611520    0.9079959980741678    0.2673459347889959 Se
   0.2602548473998618    0.8918669658161031    0.2673459347889959 Se
   0.4376742022385713    0.8757379335580386    0.2673459347889959 Se
   0.6150935570772810    0.8596089012999742    0.2673459347889960 Se
   0.7925129119159906    0.8434798690419097    0.2673459347889960 Se
   0.9699322667547003    0.8273508367838451    0.2673459347889959 Se
   0.1473516215934103    0.8112218045257805    0.2673459347889959 Se
   0.3247709764321198    0.7950927722677161    0.2673459347889959 Se
   0.5021903312708296    0.7789637400096516    0.2673459347889959 Se
   0.6796096861095392    0.7628347077515871    0.2673459347889959 Se
   0.8570290409482488    0.7467056754935226    0.2673459347889960 Se
   0.0344483957869585    0.7305766432354580    0.2673459347889959 Se
   0.2118677506256682    0.7144476109773935    0.2673459347889959 Se
   0.3892871054643777    0.6983185787193290    0.2673459347889959 Se
   0.5667064603030875    0.6821895464612646    0.2673459347889959 Se