Nb158 Bi216 Se640
1.0
  12.4880820497693499    0.0000000000000000    0.0000000000000008
   3.3621759387181389   65.7219005937079146    0.0000000000000040
   0.0000000000000000    0.0000000000000000   49.9893053307188922
Nb Bi Se
158 216 640
direct
   0.2621086284038541    0.9147726805582165    0.3566429020965913 Nb
   0.5279314132139805    0.9274309084063178    0.3566429020965913 Nb
   0.7937541980241072    0.9400891362544191    0.3566429020965913 Nb
   0.1988174891633478    0.8641397691658114    0.3566429020965913 Nb
   0.4646402739734745    0.8767979970139128    0.3566429020965913 Nb
   0.7304630587836013    0.8894562248620139    0.3566429020965913 Nb
   0.9962858435937275    0.9021144527101151    0.3566429020965913 Nb
   0.1355263499228413    0.8135068577734064    0.3566429020965913 Nb
   0.4013491347329680    0.8261650856215078    0.3566429020965913 Nb
   0.6671719195430947    0.8388233134696090    0.3566429020965913 Nb
   0.9329947043532214    0.8514815413177104    0.3566429020965913 Nb
   0.0722352106823351    0.7628739463810014    0.3566429020965913 Nb
   0.3380579954924617    0.7755321742291028    0.3566429020965913 Nb
   0.6038807803025882    0.7881904020772039    0.3566429020965913 Nb
   0.8697035651127147    0.8008486299253053    0.3566429020965913 Nb
   0.2747668562519553    0.7248992628366978    0.3566429020965913 Nb
   0.5405896410620821    0.7375574906847988    0.3566429020965913 Nb
   0.8064124258722086    0.7502157185329001    0.3566429020965913 Nb
   0.2114757170114492    0.6742663514442927    0.3566429020965913 Nb
   0.4772985018215756    0.6869245792923938    0.3566429020965913 Nb
   0.7431212866317024    0.6995828071404951    0.3566429020965913 Nb
   0.0089440714418292    0.7122410349885964    0.3566429020965913 Nb
   0.1481845777709428    0.6236334400518878    0.3566429020965913 Nb
   0.4140073625810694    0.6362916678999888    0.3566429020965913 Nb
   0.6798301473911961    0.6489498957480901    0.3566429020965913 Nb
   0.9456529322013226    0.6616081235961914    0.3566429020965913 Nb
   0.0848934385304365    0.5730005286594827    0.3566429020965913 Nb
   0.3507162233405631    0.5856587565075838    0.3566429020965913 Nb
   0.6165390081506900    0.5983169843556851    0.3566429020965913 Nb
   0.8823617929608162    0.6109752122037865    0.3566429020965913 Nb
   0.2874250841000570    0.5350258451151788    0.3566429020965913 Nb
   0.5532478689101834    0.5476840729632801    0.3566429020965913 Nb
   0.8190706537203100    0.5603423008113814    0.3566429020965913 Nb
   0.2241339448595503    0.4843929337227738    0.3566429020965913 Nb
   0.4899567296696772    0.4970511615708752    0.3566429020965913 Nb
   0.7557795144798037    0.5097093894189765    0.3566429020965913 Nb
   0.0216022992899302    0.5223676172670775    0.3566429020965913 Nb
   0.1608428056190441    0.4337600223303688    0.3566429020965913 Nb
   0.4266655904291708    0.4464182501784700    0.3566429020965913 Nb
   0.6924883752392970    0.4590764780265711    0.3566429020965913 Nb
   0.9583111600494241    0.4717347058746724    0.3566429020965913 Nb
   0.0975516663785378    0.3831271109379636    0.3566429020965913 Nb
   0.3633744511886644    0.3957853387860649    0.3566429020965913 Nb
   0.6291972359987912    0.4084435666341662    0.3566429020965913 Nb
   0.8950200208089176    0.4211017944822675    0.3566429020965913 Nb
   0.3000833119481581    0.3451524273936599    0.3566429020965913 Nb
   0.5659060967582847    0.3578106552417612    0.3566429020965913 Nb
   0.8317288815684115    0.3704688830898625    0.3566429020965913 Nb
   0.2367921727076518    0.2945195160012548    0.3566429020965913 Nb
   0.5026149575177783    0.3071777438493561    0.3566429020965913 Nb
   0.7684377423279050    0.3198359716974575    0.3566429020965913 Nb
   0.0342605271380317    0.3324941995455587    0.3566429020965913 Nb
   0.1735010334671455    0.2438866046088498    0.3566429020965913 Nb
   0.4393238182772722    0.2565448324569511    0.3566429020965913 Nb
   0.7051466030873988    0.2692030603050524    0.3566429020965913 Nb
   0.9709693878975252    0.2818612881531536    0.3566429020965913 Nb
   0.1102098942266391    0.1932536932164448    0.3566429020965913 Nb
   0.3760326790367657    0.2059119210645461    0.3566429020965913 Nb
   0.6418554638468925    0.2185701489126473    0.3566429020965913 Nb
   0.9076782486570190    0.2312283767607486    0.3566429020965913 Nb
   0.3127415397962595    0.1552790096721410    0.3566429020965913 Nb
   0.5785643246063862    0.1679372375202423    0.3566429020965913 Nb
   0.8443871094165128    0.1805954653683436    0.3566429020965913 Nb
   0.2494504005557531    0.1046460982797360    0.3566429020965913 Nb
   0.5152731853658796    0.1173043261278372    0.3566429020965913 Nb
   0.7810959701760063    0.1299625539759385    0.3566429020965913 Nb
   0.0469187549861329    0.1426207818240398    0.3566429020965913 Nb
   0.1861592613152468    0.0540131868873309    0.3566429020965913 Nb
   0.4519820461253734    0.0666714147354322    0.3566429020965913 Nb
   0.7178048309355002    0.0793296425835334    0.3566429020965913 Nb
   0.9836276157456265    0.0919878704316347    0.3566429020965913 Nb
   0.1228681220747404    0.0033802754949259    0.3566429020965913 Nb
   0.3886909068848671    0.0160385033430271    0.3566429020965913 Nb
   0.6545136916949937    0.0286967311911284    0.3566429020965913 Nb
   0.9203364765051203    0.0413549590392297    0.3566429020965913 Nb
   0.0595769828342341    0.9527473641025208    0.3566429020965913 Nb
   0.3253997676443604    0.9654055919506219    0.3566429020965913 Nb
   0.5912225524544875    0.9780638197987235    0.3566429020965913 Nb
   0.8570453372646140    0.9907220476468246    0.3566429020965913 Nb
   0.2624105029993474    0.9146321721415207    0.2336917587878817 Nb
   0.5282332878094742    0.9272903999896219    0.2336917587878817 Nb
   0.7940560726196005    0.9399486278377229    0.2336917587878817 Nb
   0.1991193637588413    0.8639992607491155    0.2336917587878817 Nb
   0.4649421485689679    0.8766574885972169    0.2336917587878817 Nb
   0.7307649333790944    0.8893157164453180    0.2336917587878817 Nb
   0.9965877181892210    0.9019739442934195    0.2336917587878817 Nb
   0.1358282245183348    0.8133663493567105    0.2336917587878817 Nb
   0.4016510093284613    0.8260245772048119    0.2336917587878817 Nb
   0.6674737941385881    0.8386828050529130    0.2336917587878817 Nb
   0.9332965789487148    0.8513410329010146    0.2336917587878817 Nb
   0.0725370852778285    0.7627334379643055    0.2336917587878817 Nb
   0.3383598700879549    0.7753916658124069    0.2336917587878817 Nb
   0.6041826548980815    0.7880498936605083    0.2336917587878817 Nb
   0.8700054397082080    0.8007081215086095    0.2336917587878817 Nb
   0.2750687308474489    0.7247587544200018    0.2336917587878817 Nb
   0.5408915156575754    0.7374169822681029    0.2336917587878817 Nb
   0.8067143004677019    0.7500752101162043    0.2336917587878817 Nb
   0.2117775916069425    0.6741258430275967    0.2336917587878817 Nb
   0.4776003764170690    0.6867840708756979    0.2336917587878817 Nb
   0.7434231612271959    0.6994422987237994    0.2336917587878817 Nb
   0.0092459460373224    0.7121005265719005    0.2336917587878817 Nb
   0.1484864523664362    0.6234929316351917    0.2336917587878817 Nb
   0.4143092371765628    0.6361511594832928    0.2336917587878817 Nb
   0.6801320219866894    0.6488093873313943    0.2336917587878817 Nb
   0.9459548067968159    0.6614676151794955    0.2336917587878817 Nb
   0.0851953131259299    0.5728600202427868    0.2336917587878817 Nb
   0.3510180979360564    0.5855182480908881    0.2336917587878817 Nb
   0.6168408827461832    0.5981764759389893    0.2336917587878817 Nb
   0.8826636675563097    0.6108347037870906    0.2336917587878817 Nb
   0.2877269586955502    0.5348853366984827    0.2336917587878817 Nb
   0.5535497435056768    0.5475435645465841    0.2336917587878817 Nb
   0.8193725283158032    0.5602017923946855    0.2336917587878817 Nb
   0.2244358194550438    0.4842524253060778    0.2336917587878817 Nb
   0.4902586042651705    0.4969106531541790    0.2336917587878817 Nb
   0.7560813890752970    0.5095688810022804    0.2336917587878817 Nb
   0.0219041738854235    0.5222271088503814    0.2336917587878817 Nb
   0.1611446802145373    0.4336195139136728    0.2336917587878817 Nb
   0.4269674650246640    0.4462777417617740    0.2336917587878817 Nb
   0.6927902498347904    0.4589359696098754    0.2336917587878817 Nb
   0.9586130346449173    0.4715941974579765    0.2336917587878817 Nb
   0.0978535409740311    0.3829866025212678    0.2336917587878817 Nb
   0.3636763257841577    0.3956448303693689    0.2336917587878817 Nb
   0.6294991105942845    0.4083030582174702    0.2336917587878817 Nb
   0.8953218954044109    0.4209612860655715    0.2336917587878817 Nb
   0.3003851865436513    0.3450119189769639    0.2336917587878817 Nb
   0.5662079713537779    0.3576701468250653    0.2336917587878817 Nb
   0.8320307561639045    0.3703283746731665    0.2336917587878817 Nb
   0.2370940473031450    0.2943790075845588    0.2336917587878817 Nb
   0.5029168321132718    0.3070372354326602    0.2336917587878817 Nb
   0.7687396169233982    0.3196954632807615    0.2336917587878817 Nb
   0.0345624017335249    0.3323536911288628    0.2336917587878817 Nb
   0.1738029080626387    0.2437460961921538    0.2336917587878817 Nb
   0.4396256928727653    0.2564043240402551    0.2336917587878817 Nb
   0.7054484776828919    0.2690625518883565    0.2336917587878817 Nb
   0.9712712624930187    0.2817207797364577    0.2336917587878817 Nb
   0.1105117688221324    0.1931131847997488    0.2336917587878817 Nb
   0.3763345536322589    0.2057714126478501    0.2336917587878817 Nb
   0.6421573384423857    0.2184296404959514    0.2336917587878817 Nb
   0.9079801232525122    0.2310878683440527    0.2336917587878817 Nb
   0.3130434143917527    0.1551385012554450    0.2336917587878817 Nb
   0.5788661992018792    0.1677967291035463    0.2336917587878817 Nb
   0.8446889840120058    0.1804549569516476    0.2336917587878817 Nb
   0.2497522751512463    0.1045055898630400    0.2336917587878817 Nb
   0.5155750599613729    0.1171638177111413    0.2336917587878817 Nb
   0.7813978447714995    0.1298220455592425    0.2336917587878817 Nb
   0.0472206295816264    0.1424802734073438    0.2336917587878817 Nb
   0.1864611359107401    0.0538726784706349    0.2336917587878817 Nb
   0.4522839207208667    0.0665309063187362    0.2336917587878817 Nb
   0.7181067055309934    0.0791891341668375    0.2336917587878817 Nb
   0.9839294903411198    0.0918473620149387    0.2336917587878817 Nb
   0.1231699966702337    0.0032397670782299    0.2336917587878817 Nb
   0.3889927814803603    0.0158979949263312    0.2336917587878817 Nb
   0.6548155662904871    0.0285562227744324    0.2336917587878817 Nb
   0.9206383511006135    0.0412144506225337    0.2336917587878817 Nb
   0.0598788574297274    0.9526068556858248    0.2336917587878817 Nb
   0.3257016422398539    0.9652650835339260    0.2336917587878817 Nb
   0.5915244270499803    0.9779233113820271    0.2336917587878817 Nb
   0.8573472118601074    0.9905815392301286    0.2336917587878817 Nb
   0.6580597390519572    0.8684279870175176    0.7671208852038270 Bi
   0.3247264057186238    0.8684279870175176    0.7671208852038270 Bi
   0.5099115909038088    0.8128724314619619    0.7671208852038270 Bi
   0.6950967760889940    0.7573168759064064    0.7671208852038270 Bi
   0.9913930723852903    0.8684279870175176    0.7671208852038270 Bi
   0.1765782575704755    0.8128724314619619    0.7671208852038270 Bi
   0.3617634427556606    0.7573168759064064    0.7671208852038272 Bi
   0.5469486279408458    0.7017613203508507    0.7671208852038272 Bi
   0.7321338131260311    0.6462057647952953    0.7671208852038272 Bi
   0.8432449242371425    0.8128724314619619    0.7671208852038270 Bi
   0.0284301094223276    0.7573168759064064    0.7671208852038272 Bi
   0.2136152946075127    0.7017613203508507    0.7671208852038272 Bi
   0.3988004797926979    0.6462057647952953    0.7671208852038272 Bi
   0.5839856649778830    0.5906502092397397    0.7671208852038272 Bi
   0.7691708501630681    0.5350946536841843    0.7671208852038272 Bi
   0.8802819612741792    0.7017613203508507    0.7671208852038270 Bi
   0.0654671464593645    0.6462057647952953    0.7671208852038272 Bi
   0.2506523316445496    0.5906502092397397    0.7671208852038272 Bi
   0.4358375168297347    0.5350946536841843    0.7671208852038272 Bi
   0.6210227020149200    0.4795390981286285    0.7671208852038272 Bi
   0.9173189983112162    0.5906502092397397    0.7671208852038272 Bi
   0.1025041834964013    0.5350946536841843    0.7671208852038272 Bi
   0.2876893686815865    0.4795390981286285    0.7671208852038272 Bi
   0.4728745538667718    0.4239835425730730    0.7671208852038272 Bi
   0.6580597390519569    0.3684279870175176    0.7671208852038272 Bi
   0.9543560353482535    0.4795390981286285    0.7671208852038272 Bi
   0.1395412205334386    0.4239835425730730    0.7671208852038272 Bi
   0.3247264057186237    0.3684279870175176    0.7671208852038272 Bi
   0.5099115909038089    0.3128724314619620    0.7671208852038272 Bi
   0.6950967760889942    0.2573168759064065    0.7671208852038272 Bi
   0.8062078872001051    0.4239835425730730    0.7671208852038272 Bi
   0.9913930723852903    0.3684279870175176    0.7671208852038272 Bi
   0.1765782575704755    0.3128724314619620    0.7671208852038272 Bi
   0.3617634427556607    0.2573168759064065    0.7671208852038272 Bi
   0.5469486279408459    0.2017613203508508    0.7671208852038272 Bi
   0.7321338131260310    0.1462057647952953    0.7671208852038272 Bi
   0.8432449242371421    0.3128724314619620    0.7671208852038272 Bi
   0.0284301094223275    0.2573168759064065    0.7671208852038272 Bi
   0.2136152946075126    0.2017613203508508    0.7671208852038272 Bi
   0.3988004797926977    0.1462057647952953    0.7671208852038272 Bi
   0.5839856649778827    0.0906502092397397    0.7671208852038272 Bi
   0.7691708501630682    0.0350946536841841    0.7671208852038272 Bi
   0.8802819612741792    0.2017613203508508    0.7671208852038272 Bi
   0.0654671464593645    0.1462057647952953    0.7671208852038272 Bi
   0.2506523316445498    0.0906502092397397    0.7671208852038272 Bi
   0.4358375168297348    0.0350946536841841    0.7671208852038272 Bi
   0.6210227020149200    0.9795390981286286    0.7671208852038272 Bi
   0.9173189983112163    0.0906502092397397    0.7671208852038272 Bi
   0.1025041834964015    0.0350946536841841    0.7671208852038272 Bi
   0.2876893686815868    0.9795390981286286    0.7671208852038272 Bi
   0.4728745538667716    0.9239835425730732    0.7671208852038270 Bi
   0.9543560353482534    0.9795390981286286    0.7671208852038272 Bi
   0.1395412205334384    0.9239835425730732    0.7671208852038270 Bi
   0.8062078872001053    0.9239835425730732    0.7671208852038270 Bi
   0.8212766245876437    0.8870839316828171    0.6873709670584139 Bi
   0.4879432912543105    0.8870839316828171    0.6873709670584139 Bi
   0.6731284764394956    0.8315283761272615    0.6873709670584139 Bi
   0.8583136616246809    0.7759728205717059    0.6873709670584139 Bi
   0.1546099579209771    0.8870839316828171    0.6873709670584139 Bi
   0.3397951431061621    0.8315283761272615    0.6873709670584139 Bi
   0.5249803282913473    0.7759728205717059    0.6873709670584139 Bi
   0.7101655134765327    0.7204172650161503    0.6873709670584139 Bi
   0.8953506986617179    0.6648617094605949    0.6873709670584139 Bi
   0.0064618097728293    0.8315283761272615    0.6873709670584139 Bi
   0.1916469949580144    0.7759728205717059    0.6873709670584139 Bi
   0.3768321801431995    0.7204172650161503    0.6873709670584139 Bi
   0.5620173653283846    0.6648617094605949    0.6873709670584139 Bi
   0.7472025505135695    0.6093061539050394    0.6873709670584139 Bi
   0.9323877356987549    0.5537505983494838    0.6873709670584139 Bi
   0.0434988468098660    0.7204172650161503    0.6873709670584139 Bi
   0.2286840319950514    0.6648617094605949    0.6873709670584139 Bi
   0.4138692171802364    0.6093061539050394    0.6873709670584139 Bi
   0.5990544023654214    0.5537505983494838    0.6873709670584139 Bi
   0.7842395875506067    0.4981950427939282    0.6873709670584139 Bi
   0.0805358838469031    0.6093061539050394    0.6873709670584139 Bi
   0.2657210690320883    0.5537505983494838    0.6873709670584139 Bi
   0.4509062542172732    0.4981950427939282    0.6873709670584139 Bi
   0.6360914394024586    0.4426394872383726    0.6873709670584139 Bi
   0.8212766245876437    0.3870839316828171    0.6873709670584139 Bi
   0.1175729208839403    0.4981950427939282    0.6873709670584139 Bi
   0.3027581060691255    0.4426394872383726    0.6873709670584139 Bi
   0.4879432912543105    0.3870839316828171    0.6873709670584139 Bi
   0.6731284764394958    0.3315283761272614    0.6873709670584139 Bi
   0.8583136616246809    0.2759728205717058    0.6873709670584139 Bi
   0.9694247727357920    0.4426394872383726    0.6873709670584139 Bi
   0.1546099579209771    0.3870839316828171    0.6873709670584139 Bi
   0.3397951431061623    0.3315283761272614    0.6873709670584138 Bi
   0.5249803282913473    0.2759728205717058    0.6873709670584138 Bi
   0.7101655134765328    0.2204172650161503    0.6873709670584138 Bi
   0.8953506986617177    0.1648617094605948    0.6873709670584138 Bi
   0.0064618097728290    0.3315283761272614    0.6873709670584138 Bi
   0.1916469949580142    0.2759728205717058    0.6873709670584138 Bi
   0.3768321801431992    0.2204172650161503    0.6873709670584138 Bi
   0.5620173653283845    0.1648617094605948    0.6873709670584138 Bi
   0.7472025505135699    0.1093061539050392    0.6873709670584138 Bi
   0.9323877356987551    0.0537505983494836    0.6873709670584138 Bi
   0.0434988468098661    0.2204172650161503    0.6873709670584138 Bi
   0.2286840319950512    0.1648617094605948    0.6873709670584138 Bi
   0.4138692171802365    0.1093061539050392    0.6873709670584138 Bi
   0.5990544023654217    0.0537505983494836    0.6873709670584138 Bi
   0.7842395875506067    0.9981950427939281    0.6873709670584138 Bi
   0.0805358838469032    0.1093061539050392    0.6873709670584138 Bi
   0.2657210690320882    0.0537505983494836    0.6873709670584138 Bi
   0.4509062542172735    0.9981950427939281    0.6873709670584138 Bi
   0.6360914394024586    0.9426394872383725    0.6873709670584139 Bi
   0.1175729208839402    0.9981950427939281    0.6873709670584138 Bi
   0.3027581060691254    0.9426394872383725    0.6873709670584139 Bi
   0.9694247727357921    0.9426394872383725    0.6873709670584139 Bi
   0.8223612611233176    0.8880922963634383    0.5665155440360312 Bi
   0.4890279277899841    0.8880922963634383    0.5665155440360312 Bi
   0.6742131129751691    0.8325367408078828    0.5665155440360311 Bi
   0.8593982981603544    0.7769811852523271    0.5665155440360311 Bi
   0.1556945944566507    0.8880922963634383    0.5665155440360311 Bi
   0.3408797796418357    0.8325367408078828    0.5665155440360312 Bi
   0.5260649648270209    0.7769811852523271    0.5665155440360312 Bi
   0.7112501500122059    0.7214256296967716    0.5665155440360312 Bi
   0.8964353351973915    0.6658700741412160    0.5665155440360312 Bi
   0.0075464463085028    0.8325367408078828    0.5665155440360312 Bi
   0.1927316314936880    0.7769811852523271    0.5665155440360312 Bi
   0.3779168166788731    0.7214256296967716    0.5665155440360312 Bi
   0.5631020018640585    0.6658700741412160    0.5665155440360312 Bi
   0.7482871870492436    0.6103145185856603    0.5665155440360312 Bi
   0.9334723722344287    0.5547589630301049    0.5665155440360312 Bi
   0.0445834833455396    0.7214256296967716    0.5665155440360312 Bi
   0.2297686685307248    0.6658700741412160    0.5665155440360312 Bi
   0.4149538537159102    0.6103145185856603    0.5665155440360312 Bi
   0.6001390389010950    0.5547589630301049    0.5665155440360312 Bi
   0.7853242240862800    0.4992034074745492    0.5665155440360312 Bi
   0.0816205203825765    0.6103145185856603    0.5665155440360312 Bi
   0.2668057055677618    0.5547589630301049    0.5665155440360312 Bi
   0.4519908907529467    0.4992034074745492    0.5665155440360312 Bi
   0.6371760759381322    0.4436478519189936    0.5665155440360312 Bi
   0.8223612611233172    0.3880922963634381    0.5665155440360312 Bi
   0.1186575574196139    0.4992034074745492    0.5665155440360312 Bi
   0.3038427426047989    0.4436478519189936    0.5665155440360312 Bi
   0.4890279277899845    0.3880922963634381    0.5665155440360312 Bi
   0.6742131129751692    0.3325367408078826    0.5665155440360312 Bi
   0.8593982981603547    0.2769811852523271    0.5665155440360312 Bi
   0.9705094092714655    0.4436478519189936    0.5665155440360312 Bi
   0.1556945944566507    0.3880922963634381    0.5665155440360312 Bi
   0.3408797796418359    0.3325367408078826    0.5665155440360312 Bi
   0.5260649648270213    0.2769811852523271    0.5665155440360312 Bi
   0.7112501500122063    0.2214256296967715    0.5665155440360312 Bi
   0.8964353351973915    0.1658700741412160    0.5665155440360312 Bi
   0.0075464463085026    0.3325367408078826    0.5665155440360312 Bi
   0.1927316314936879    0.2769811852523271    0.5665155440360312 Bi
   0.3779168166788729    0.2214256296967715    0.5665155440360312 Bi
   0.5631020018640581    0.1658700741412160    0.5665155440360312 Bi
   0.7482871870492431    0.1103145185856604    0.5665155440360312 Bi
   0.9334723722344287    0.0547589630301048    0.5665155440360311 Bi
   0.0445834833455397    0.2214256296967715    0.5665155440360312 Bi
   0.2297686685307248    0.1658700741412160    0.5665155440360312 Bi
   0.4149538537159100    0.1103145185856604    0.5665155440360312 Bi
   0.6001390389010953    0.0547589630301048    0.5665155440360312 Bi
   0.7853242240862804    0.9992034074745493    0.5665155440360312 Bi
   0.0816205203825767    0.1103145185856604    0.5665155440360312 Bi
   0.2668057055677618    0.0547589630301048    0.5665155440360312 Bi
   0.4519908907529470    0.9992034074745493    0.5665155440360311 Bi
   0.6371760759381323    0.9436478519189938    0.5665155440360312 Bi
   0.1186575574196137    0.9992034074745493    0.5665155440360312 Bi
   0.3038427426047987    0.9436478519189938    0.5665155440360312 Bi
   0.9705094092714656    0.9436478519189938    0.5665155440360311 Bi
   0.6511219657242728    0.9064676090871340    0.4870641414761426 Bi
   0.3177886323909394    0.9064676090871340    0.4870641414761426 Bi
   0.5029738175761247    0.8509120535315782    0.4870641414761426 Bi
   0.6881590027613097    0.7953564979760227    0.4870641414761426 Bi
   0.9844552990576061    0.9064676090871340    0.4870641414761426 Bi
   0.1696404842427911    0.8509120535315782    0.4870641414761426 Bi
   0.3548256694279763    0.7953564979760227    0.4870641414761426 Bi
   0.5400108546131615    0.7398009424204670    0.4870641414761426 Bi
   0.7251960397983465    0.6842453868649117    0.4870641414761426 Bi
   0.8363071509094582    0.8509120535315782    0.4870641414761426 Bi
   0.0214923360946433    0.7953564979760227    0.4870641414761426 Bi
   0.2066775212798284    0.7398009424204670    0.4870641414761426 Bi
   0.3918627064650135    0.6842453868649117    0.4870641414761426 Bi
   0.5770478916501985    0.6286898313093560    0.4870641414761426 Bi
   0.7622330768353841    0.5731342757538006    0.4870641414761426 Bi
   0.8733441879464949    0.7398009424204670    0.4870641414761426 Bi
   0.0585293731316803    0.6842453868649117    0.4870641414761426 Bi
   0.2437145583168654    0.6286898313093560    0.4870641414761426 Bi
   0.4288997435020503    0.5731342757538006    0.4870641414761426 Bi
   0.6140849286872356    0.5175787201982448    0.4870641414761426 Bi
   0.9103812249835319    0.6286898313093560    0.4870641414761426 Bi
   0.0955664101687170    0.5731342757538006    0.4870641414761426 Bi
   0.2807515953539022    0.5175787201982448    0.4870641414761426 Bi
   0.4659367805390874    0.4620231646426892    0.4870641414761426 Bi
   0.6511219657242727    0.4064676090871337    0.4870641414761426 Bi
   0.9474182620205693    0.5175787201982448    0.4870641414761426 Bi
   0.1326034472057544    0.4620231646426892    0.4870641414761426 Bi
   0.3177886323909395    0.4064676090871337    0.4870641414761426 Bi
   0.5029738175761247    0.3509120535315782    0.4870641414761426 Bi
   0.6881590027613100    0.2953564979760227    0.4870641414761426 Bi
   0.7992701138724209    0.4620231646426892    0.4870641414761426 Bi
   0.9844552990576061    0.4064676090871337    0.4870641414761426 Bi
   0.1696404842427912    0.3509120535315782    0.4870641414761426 Bi
   0.3548256694279765    0.2953564979760227    0.4870641414761426 Bi
   0.5400108546131617    0.2398009424204670    0.4870641414761426 Bi
   0.7251960397983467    0.1842453868649115    0.4870641414761426 Bi
   0.8363071509094580    0.3509120535315782    0.4870641414761426 Bi
   0.0214923360946432    0.2953564979760227    0.4870641414761426 Bi
   0.2066775212798285    0.2398009424204670    0.4870641414761426 Bi
   0.3918627064650135    0.1842453868649115    0.4870641414761426 Bi
   0.5770478916501985    0.1286898313093559    0.4870641414761426 Bi
   0.7622330768353837    0.0731342757538004    0.4870641414761426 Bi
   0.8733441879464952    0.2398009424204670    0.4870641414761426 Bi
   0.0585293731316802    0.1842453868649115    0.4870641414761426 Bi
   0.2437145583168656    0.1286898313093559    0.4870641414761426 Bi
   0.4288997435020506    0.0731342757538004    0.4870641414761426 Bi
   0.6140849286872357    0.0175787201982448    0.4870641414761426 Bi
   0.9103812249835321    0.1286898313093559    0.4870641414761426 Bi
   0.0955664101687173    0.0731342757538004    0.4870641414761426 Bi
   0.2807515953539025    0.0175787201982448    0.4870641414761426 Bi
   0.4659367805390873    0.9620231646426894    0.4870641414761426 Bi
   0.9474182620205692    0.0175787201982448    0.4870641414761426 Bi
   0.1326034472057543    0.9620231646426894    0.4870641414761426 Bi
   0.7992701138724210    0.9620231646426894    0.4870641414761426 Bi
   0.1062667953984063    0.9230641759119521    0.2000427878291580 Se
   0.3720895802085329    0.9357224037600533    0.2000427878291580 Se
   0.6379123650186593    0.9483806316081546    0.2000427878291580 Se
   0.0429756561578998    0.8724312645195471    0.2000427878291580 Se
   0.3087984409680265    0.8850894923676483    0.2000427878291580 Se
   0.5746212257781534    0.8977477202157496    0.2000427878291580 Se
   0.8404440105882800    0.9104059480638509    0.2000427878291580 Se
   0.9796845169173937    0.8217983531271421    0.2000427878291580 Se
   0.2455073017275202    0.8344565809752434    0.2000427878291580 Se
   0.5113300865376469    0.8471148088233446    0.2000427878291580 Se
   0.7771528713477733    0.8597730366714459    0.2000427878291580 Se
   0.9163933776768871    0.7711654417347371    0.2000427878291580 Se
   0.1822161624870137    0.7838236695828386    0.2000427878291580 Se
   0.4480389472971405    0.7964818974309396    0.2000427878291580 Se
   0.7138617321072670    0.8091401252790409    0.2000427878291580 Se
   0.1189250232465076    0.7331907581904334    0.2000427878291580 Se
   0.3847478080566343    0.7458489860385346    0.2000427878291580 Se
   0.6505705928667609    0.7585072138866359    0.2000427878291580 Se
   0.0556338840060012    0.6825578467980284    0.2000427878291580 Se
   0.3214566688161281    0.6952160746461294    0.2000427878291580 Se
   0.5872794536262547    0.7078743024942309    0.2000427878291580 Se
   0.8531022384363810    0.7205325303423319    0.2000427878291580 Se
   0.9923427447654949    0.6319249354056233    0.2000427878291580 Se
   0.2581655295756217    0.6445831632537244    0.2000427878291580 Se
   0.5239883143857483    0.6572413911018259    0.2000427878291580 Se
   0.7898110991958748    0.6698996189499270    0.2000427878291580 Se
   0.9290516055249887    0.5812920240132183    0.2000427878291580 Se
   0.1948743903351152    0.5939502518613194    0.2000427878291580 Se
   0.4606971751452418    0.6066084797094209    0.2000427878291580 Se
   0.7265199599553687    0.6192667075575220    0.2000427878291580 Se
   0.1315832510946091    0.5433173404689143    0.2000427878291580 Se
   0.3974060359047357    0.5559755683170159    0.2000427878291580 Se
   0.6632288207148619    0.5686337961651170    0.2000427878291580 Se
   0.0682921118541028    0.4926844290765092    0.2000427878291580 Se
   0.3341148966642292    0.5053426569246107    0.2000427878291580 Se
   0.5999376814743558    0.5180008847727117    0.2000427878291580 Se
   0.8657604662844824    0.5306591126208130    0.2000427878291580 Se
   0.0050009726135964    0.4420515176841042    0.2000427878291580 Se
   0.2708237574237231    0.4547097455322055    0.2000427878291580 Se
   0.5366465422338498    0.4673679733803068    0.2000427878291580 Se
   0.8024693270439761    0.4800262012284080    0.2000427878291580 Se
   0.9417098333730901    0.3914186062916991    0.2000427878291580 Se
   0.2075326181832167    0.4040768341398004    0.2000427878291580 Se
   0.4733554029933433    0.4167350619879018    0.2000427878291580 Se
   0.7391781878034698    0.4293932898360030    0.2000427878291580 Se
   0.1442414789427104    0.3534439227473954    0.2000427878291580 Se
   0.4100642637528371    0.3661021505954967    0.2000427878291580 Se
   0.6758870485629638    0.3787603784435979    0.2000427878291580 Se
   0.0809503397022040    0.3028110113549904    0.2000427878291580 Se
   0.3467731245123306    0.3154692392030917    0.2000427878291580 Se
   0.6125959093224571    0.3281274670511929    0.2000427878291580 Se
   0.8784186941325839    0.3407856948992941    0.2000427878291580 Se
   0.0176592004616977    0.2521780999625854    0.2000427878291580 Se
   0.2834819852718242    0.2648363278106867    0.2000427878291580 Se
   0.5493047700819511    0.2774945556587878    0.2000427878291580 Se
   0.8151275548920774    0.2901527835068891    0.2000427878291580 Se
   0.9543680612211913    0.2015451885701803    0.2000427878291580 Se