{'film_sl_vectors': array([[-1.25124835e+01, -2.84217094e-14,  0.00000000e+00],
       [-4.17082784e+00, -6.50167715e+01, -0.00000000e+00]]), 'substrate_sl_vectors': array([[ -3.46357078,  11.99816114,   0.        ],
       [-64.07605947, -14.99770142,   0.        ]]), 'film_vectors': array([[ 4.17082784,  0.        ,  0.        ],
       [-2.08541392,  3.61204286,  0.        ]]), 'substrate_vectors': array([[ 3.46357078,  0.        ,  0.        ],
       [-1.73178539,  2.99954028,  0.        ]]), 'film_transformation': array([[ 1., 18.],
       [ 0., 54.]]), 'substrate_transformation': array([[ 1.,  4.],
       [ 0., 79.]]), 'strain': Strain([[-0.00194827 -0.00614424  0.        ]
 [-0.00614424  0.01097995  0.        ]
 [ 0.          0.          0.        ]]), 'von_mises_strain': 0.010729023935411046, 'termination': ('default', 'default'), 'film_thickness': 1, 'substrate_thickness': 1, 'signed_angle': -73.89788624703694, 'decomposition_angle': 73.54672574349983}