Nb64 Bi84 Se254
1.0
  12.4880820500921388    0.0000000000000000    0.0000000000000008
   4.8031084825072918   26.6215293537252187    0.0000000000000017
   0.0000000000000000    0.0000000000000000   44.4624158930297497
Nb Bi Se
64 84 254
direct
   0.1061402131784049    0.9075946078218433    0.3447480443666842 Nb
   0.1373902131784050    0.1263446078218433    0.3447480443666842 Nb
   0.2623902131784051    0.0013446078218433    0.3447480443666842 Nb
   0.1686402131784051    0.3450946078218434    0.3447480443666842 Nb
   0.2936402131784052    0.2200946078218433    0.3447480443666842 Nb
   0.4186402131784053    0.0950946078218433    0.3447480443666842 Nb
   0.5436402131784053    0.9700946078218433    0.3447480443666842 Nb
   0.1998902131784051    0.5638446078218434    0.3447480443666842 Nb
   0.3248902131784049    0.4388446078218434    0.3447480443666842 Nb
   0.4498902131784049    0.3138446078218434    0.3447480443666842 Nb
   0.5748902131784051    0.1888446078218433    0.3447480443666842 Nb
   0.6998902131784052    0.0638446078218434    0.3447480443666842 Nb
   0.8248902131784051    0.9388446078218434    0.3447480443666843 Nb
   0.2311402131784048    0.7825946078218432    0.3447480443666842 Nb
   0.3561402131784051    0.6575946078218432    0.3447480443666842 Nb
   0.4811402131784051    0.5325946078218432    0.3447480443666842 Nb
   0.6061402131784053    0.4075946078218434    0.3447480443666842 Nb
   0.7311402131784051    0.2825946078218434    0.3447480443666842 Nb
   0.8561402131784053    0.1575946078218433    0.3447480443666842 Nb
   0.9811402131784051    0.0325946078218433    0.3447480443666842 Nb
   0.3873902131784048    0.8763446078218434    0.3447480443666843 Nb
   0.5123902131784051    0.7513446078218433    0.3447480443666843 Nb
   0.6373902131784051    0.6263446078218432    0.3447480443666842 Nb
   0.7623902131784052    0.5013446078218433    0.3447480443666842 Nb
   0.8873902131784051    0.3763446078218433    0.3447480443666842 Nb
   0.0123902131784051    0.2513446078218434    0.3447480443666842 Nb
   0.6686402131784046    0.8450946078218434    0.3447480443666843 Nb
   0.7936402131784051    0.7200946078218433    0.3447480443666843 Nb
   0.9186402131784051    0.5950946078218432    0.3447480443666842 Nb
   0.0436402131784051    0.4700946078218433    0.3447480443666842 Nb
   0.9498902131784053    0.8138446078218432    0.3447480443666842 Nb
   0.0748902131784050    0.6888446078218434    0.3447480443666842 Nb
   0.1068871793844159    0.9076607794523593    0.2065134900768983 Nb
   0.1381371793844161    0.1264107794523595    0.2065134900768983 Nb
   0.2631371793844162    0.0014107794523594    0.2065134900768983 Nb
   0.1693871793844161    0.3451607794523595    0.2065134900768983 Nb
   0.2943871793844163    0.2201607794523595    0.2065134900768983 Nb
   0.4193871793844162    0.0951607794523594    0.2065134900768983 Nb
   0.5443871793844163    0.9701607794523595    0.2065134900768983 Nb
   0.2006371793844164    0.5639107794523595    0.2065134900768983 Nb
   0.3256371793844162    0.4389107794523594    0.2065134900768983 Nb
   0.4506371793844161    0.3139107794523594    0.2065134900768983 Nb
   0.5756371793844163    0.1889107794523595    0.2065134900768983 Nb
   0.7006371793844161    0.0639107794523595    0.2065134900768983 Nb
   0.8256371793844164    0.9389107794523595    0.2065134900768983 Nb
   0.2318871793844159    0.7826607794523595    0.2065134900768983 Nb
   0.3568871793844163    0.6576607794523593    0.2065134900768983 Nb
   0.4818871793844163    0.5326607794523595    0.2065134900768983 Nb
   0.6068871793844163    0.4076607794523594    0.2065134900768983 Nb
   0.7318871793844163    0.2826607794523594    0.2065134900768983 Nb
   0.8568871793844163    0.1576607794523593    0.2065134900768983 Nb
   0.9818871793844162    0.0326607794523594    0.2065134900768983 Nb
   0.3881371793844164    0.8764107794523593    0.2065134900768983 Nb
   0.5131371793844166    0.7514107794523595    0.2065134900768983 Nb
   0.6381371793844159    0.6264107794523595    0.2065134900768983 Nb
   0.7631371793844164    0.5014107794523593    0.2065134900768983 Nb
   0.8881371793844163    0.3764107794523595    0.2065134900768983 Nb
   0.0131371793844161    0.2514107794523594    0.2065134900768983 Nb
   0.6693871793844159    0.8451607794523593    0.2065134900768983 Nb
   0.7943871793844163    0.7201607794523593    0.2065134900768983 Nb
   0.9193871793844164    0.5951607794523595    0.2065134900768983 Nb
   0.0443871793844161    0.4701607794523595    0.2065134900768983 Nb
   0.9506371793844162    0.8139107794523595    0.2065134900768983 Nb
   0.0756371793844162    0.6889107794523593    0.2065134900768983 Nb
   0.4574315617126055    0.0015783995930380    0.7944001694220465 Bi
   0.1240982283792721    0.0015783995930381    0.7944001694220465 Bi
   0.7907648950459387    0.0015783995930380    0.7944001694220465 Bi
   0.5526696569507008    0.1444355424501809    0.7944001694220465 Bi
   0.2193363236173674    0.1444355424501809    0.7944001694220465 Bi
   0.8860029902840341    0.1444355424501808    0.7944001694220465 Bi
   0.6479077521887958    0.2872926853073235    0.7944001694220465 Bi
   0.3145744188554624    0.2872926853073236    0.7944001694220465 Bi
   0.9812410855221293    0.2872926853073238    0.7944001694220465 Bi
   0.7431458474268913    0.4301498281644663    0.7944001694220465 Bi
   0.4098125140935580    0.4301498281644665    0.7944001694220465 Bi
   0.0764791807602245    0.4301498281644665    0.7944001694220465 Bi
   0.5050506093316528    0.5730069710216091    0.7944001694220465 Bi
   0.1717172759983197    0.5730069710216091    0.7944001694220465 Bi
   0.8383839426649864    0.5730069710216095    0.7944001694220465 Bi
   0.6002887045697483    0.7158641138787519    0.7944001694220465 Bi
   0.2669553712364148    0.7158641138787518    0.7944001694220465 Bi
   0.9336220379030815    0.7158641138787519    0.7944001694220465 Bi
   0.6955267998078434    0.8587212567358947    0.7944001694220465 Bi
   0.3621934664745101    0.8587212567358947    0.7944001694220465 Bi
   0.0288601331411767    0.8587212567358948    0.7944001694220465 Bi
   0.6002043627272544    0.0478340991273158    0.7047369577364245 Bi
   0.2668710293939209    0.0478340991273159    0.7047369577364245 Bi
   0.9335376960605876    0.0478340991273158    0.7047369577364245 Bi
   0.6954424579653494    0.1906912419844585    0.7047369577364245 Bi
   0.3621091246320162    0.1906912419844585    0.7047369577364245 Bi
   0.0287757912986828    0.1906912419844587    0.7047369577364245 Bi
   0.7906805532034448    0.3335483848416014    0.7047369577364245 Bi
   0.4573472198701114    0.3335483848416013    0.7047369577364245 Bi
   0.1240138865367780    0.3335483848416014    0.7047369577364245 Bi
   0.8859186484415400    0.4764055276987443    0.7047369577364245 Bi
   0.5525853151082069    0.4764055276987443    0.7047369577364245 Bi
   0.2192519817748733    0.4764055276987443    0.7047369577364245 Bi
   0.6478234103463018    0.6192626705558870    0.7047369577364245 Bi
   0.3144900770129685    0.6192626705558870    0.7047369577364245 Bi
   0.9811567436796351    0.6192626705558871    0.7047369577364245 Bi
   0.7430615055843972    0.7621198134130295    0.7047369577364245 Bi
   0.4097281722510637    0.7621198134130298    0.7047369577364245 Bi
   0.0763948389177304    0.7621198134130298    0.7047369577364245 Bi
   0.8382996008224920    0.9049769562701725    0.7047369577364245 Bi
   0.5049662674891590    0.9049769562701727    0.7047369577364245 Bi
   0.1716329341558255    0.9049769562701725    0.7047369577364245 Bi
   0.6049843073430545    0.0459287339254253    0.5688586317166681 Bi
   0.2716509740097210    0.0459287339254254    0.5688586317166681 Bi
   0.9383176406763878    0.0459287339254255    0.5688586317166681 Bi
   0.7002224025811495    0.1887858767825682    0.5688586317166681 Bi
   0.3668890692478162    0.1887858767825682    0.5688586317166681 Bi
   0.0335557359144829    0.1887858767825683    0.5688586317166681 Bi
   0.7954604978192450    0.3316430196397109    0.5688586317166681 Bi
   0.4621271644859115    0.3316430196397110    0.5688586317166681 Bi
   0.1287938311525782    0.3316430196397110    0.5688586317166681 Bi
   0.8906985930573401    0.4745001624968537    0.5688586317166681 Bi
   0.5573652597240067    0.4745001624968540    0.5688586317166681 Bi
   0.2240319263906733    0.4745001624968538    0.5688586317166681 Bi
   0.6526033549621020    0.6173573053539964    0.5688586317166681 Bi
   0.3192700216287685    0.6173573053539964    0.5688586317166681 Bi
   0.9859366882954352    0.6173573053539969    0.5688586317166681 Bi
   0.7478414502001974    0.7602144482111391    0.5688586317166681 Bi
   0.4145081168668637    0.7602144482111391    0.5688586317166681 Bi
   0.0811747835335305    0.7602144482111391    0.5688586317166681 Bi
   0.8430795454382926    0.9030715910682819    0.5688586317166681 Bi
   0.5097462121049592    0.9030715910682822    0.5688586317166681 Bi
   0.1764128787716257    0.9030715910682819    0.5688586317166681 Bi
   0.3180899702528637    0.9502094137768795    0.4795310425214355 Bi
   0.9847566369195304    0.9502094137768795    0.4795310425214355 Bi
   0.6514233035861970    0.9502094137768795    0.4795310425214355 Bi
   0.4133280654909591    0.0930665566340223    0.4795310425214355 Bi
   0.0799947321576256    0.0930665566340223    0.4795310425214355 Bi
   0.7466613988242923    0.0930665566340223    0.4795310425214355 Bi
   0.5085661607290541    0.2359236994911650    0.4795310425214355 Bi
   0.1752328273957208    0.2359236994911651    0.4795310425214355 Bi
   0.8418994940623874    0.2359236994911652    0.4795310425214355 Bi
   0.6038042559671497    0.3787808423483078    0.4795310425214355 Bi
   0.2704709226338162    0.3787808423483079    0.4795310425214355 Bi
   0.9371375893004827    0.3787808423483079    0.4795310425214355 Bi
   0.3657090178719112    0.5216379852054507    0.4795310425214355 Bi
   0.0323756845385780    0.5216379852054507    0.4795310425214355 Bi
   0.6990423512052446    0.5216379852054507    0.4795310425214355 Bi
   0.4609471131100066    0.6644951280625934    0.4795310425214355 Bi
   0.1276137797766733    0.6644951280625937    0.4795310425214355 Bi
   0.7942804464433399    0.6644951280625936    0.4795310425214355 Bi
   0.5561852083481018    0.8073522709197364    0.4795310425214355 Bi
   0.2228518750147684    0.8073522709197365    0.4795310425214355 Bi
   0.8895185416814351    0.8073522709197364    0.4795310425214355 Bi
   0.9714803565430506    0.9597636555987245    0.1686817922364797 Se
   0.0027303565430506    0.1785136555987244    0.1686817922364797 Se
   0.1277303565430506    0.0535136555987244    0.1686817922364797 Se
   0.0339803565430506    0.3972636555987244    0.1686817922364797 Se
   0.1589803565430506    0.2722636555987244    0.1686817922364797 Se
   0.2839803565430505    0.1472636555987244    0.1686817922364797 Se
   0.4089803565430508    0.0222636555987244    0.1686817922364797 Se
   0.0652303565430505    0.6160136555987246    0.1686817922364797 Se
   0.1902303565430506    0.4910136555987244    0.1686817922364797 Se
   0.3152303565430506    0.3660136555987244    0.1686817922364797 Se
   0.4402303565430508    0.2410136555987245    0.1686817922364797 Se
   0.5652303565430506    0.1160136555987244    0.1686817922364797 Se
   0.6902303565430505    0.9910136555987245    0.1686817922364797 Se
   0.0964803565430507    0.8347636555987246    0.1686817922364797 Se
   0.2214803565430504    0.7097636555987247    0.1686817922364797 Se
   0.3464803565430506    0.5847636555987245    0.1686817922364797 Se
   0.4714803565430507    0.4597636555987245    0.1686817922364797 Se
   0.5964803565430508    0.3347636555987245    0.1686817922364797 Se
   0.7214803565430508    0.2097636555987244    0.1686817922364797 Se
   0.8464803565430506    0.0847636555987244    0.1686817922364797 Se
   0.2527303565430506    0.9285136555987242    0.1686817922364797 Se
   0.3777303565430509    0.8035136555987245    0.1686817922364797 Se
   0.5027303565430510    0.6785136555987245    0.1686817922364797 Se
   0.6277303565430505    0.5535136555987243    0.1686817922364797 Se
   0.7527303565430505    0.4285136555987245    0.1686817922364797 Se
   0.8777303565430509    0.3035136555987245    0.1686817922364797 Se
   0.5339803565430503    0.8972636555987245    0.1686817922364797 Se
   0.6589803565430505    0.7722636555987241    0.1686817922364797 Se
   0.7839803565430508    0.6472636555987245    0.1686817922364797 Se
   0.9089803565430506    0.5222636555987245    0.1686817922364797 Se
   0.8152303565430505    0.8660136555987245    0.1686817922364797 Se
   0.9402303565430504    0.7410136555987246    0.1686817922364797 Se
   0.9603056029559024    0.8867720387774587    0.3069115334886653 Se
   0.9915556029559025    0.1055220387774586    0.3069115334886653 Se
   0.1165556029559026    0.9805220387774587    0.3069115334886653 Se
   0.0228056029559025    0.3242720387774586    0.3069115334886653 Se
   0.1478056029559025    0.1992720387774586    0.3069115334886653 Se
   0.2728056029559026    0.0742720387774586    0.3069115334886653 Se
   0.3978056029559026    0.9492720387774586    0.3069115334886653 Se
   0.0540556029559026    0.5430220387774587    0.3069115334886653 Se
   0.1790556029559024    0.4180220387774586    0.3069115334886653 Se
   0.3040556029559025    0.2930220387774587    0.3069115334886653 Se
   0.4290556029559025    0.1680220387774586    0.3069115334886653 Se
   0.5540556029559024    0.0430220387774587    0.3069115334886653 Se
   0.6790556029559025    0.9180220387774588    0.3069115334886653 Se
   0.0853056029559026    0.7617720387774587    0.3069115334886653 Se
   0.2103056029559026    0.6367720387774588    0.3069115334886653 Se
   0.3353056029559027    0.5117720387774587    0.3069115334886653 Se
   0.4603056029559025    0.3867720387774586    0.3069115334886653 Se
   0.5853056029559024    0.2617720387774586    0.3069115334886653 Se
   0.7103056029559026    0.1367720387774586    0.3069115334886653 Se
   0.8353056029559027    0.0117720387774586    0.3069115334886653 Se
   0.2415556029559023    0.8555220387774587    0.3069115334886653 Se
   0.3665556029559028    0.7305220387774587    0.3069115334886653 Se
   0.4915556029559023    0.6055220387774587    0.3069115334886653 Se
   0.6165556029559029    0.4805220387774589    0.3069115334886653 Se
   0.7415556029559027    0.3555220387774586    0.3069115334886653 Se
   0.8665556029559024    0.2305220387774587    0.3069115334886653 Se
   0.5228056029559029    0.8242720387774589    0.3069115334886653 Se
   0.6478056029559023    0.6992720387774588    0.3069115334886653 Se
   0.7728056029559027    0.5742720387774586    0.3069115334886653 Se
   0.8978056029559027    0.4492720387774586    0.3069115334886653 Se
   0.8040556029559027    0.7930220387774587    0.3069115334886653 Se
   0.9290556029559027    0.6680220387774587    0.3069115334886653 Se
   0.9714162333638039    0.9597418180453648    0.2443510399711944 Se
   0.0026662333638039    0.1784918180453648    0.2443510399711944 Se
   0.1276662333638039    0.0534918180453649    0.2443510399711944 Se
   0.0339162333638039    0.3972418180453649    0.2443510399711944 Se
   0.1589162333638038    0.2722418180453649    0.2443510399711944 Se
   0.2839162333638039    0.1472418180453649    0.2443510399711944 Se
   0.4089162333638041    0.0222418180453649    0.2443510399711944 Se
   0.0651662333638039    0.6159918180453650    0.2443510399711944 Se
   0.1901662333638039    0.4909918180453649    0.2443510399711944 Se
   0.3151662333638040    0.3659918180453648    0.2443510399711944 Se
   0.4401662333638038    0.2409918180453649    0.2443510399711944 Se
   0.5651662333638039    0.1159918180453649    0.2443510399711944 Se
   0.6901662333638042    0.9909918180453648    0.2443510399711944 Se
   0.0964162333638042    0.8347418180453648    0.2443510399711944 Se
   0.2214162333638037    0.7097418180453648    0.2443510399711944 Se
   0.3464162333638039    0.5847418180453650    0.2443510399711944 Se
   0.4714162333638040    0.4597418180453650    0.2443510399711944 Se
   0.5964162333638039    0.3347418180453648    0.2443510399711944 Se
   0.7214162333638041    0.2097418180453648    0.2443510399711944 Se
   0.8464162333638038    0.0847418180453649    0.2443510399711944 Se
   0.2526662333638042    0.9284918180453646    0.2443510399711944 Se
   0.3776662333638038    0.8034918180453650    0.2443510399711944 Se
   0.5026662333638041    0.6784918180453648    0.2443510399711944 Se
   0.6276662333638041    0.5534918180453650    0.2443510399711944 Se
   0.7526662333638042    0.4284918180453648    0.2443510399711944 Se
   0.8776662333638038    0.3034918180453648    0.2443510399711944 Se
   0.5339162333638038    0.8972418180453648    0.2443510399711944 Se
   0.6589162333638041    0.7722418180453646    0.2443510399711944 Se
   0.7839162333638041    0.6472418180453648    0.2443510399711944 Se
   0.9089162333638040    0.5222418180453650    0.2443510399711944 Se
   0.8151662333638042    0.8659918180453648    0.2443510399711944 Se
   0.9401662333638040    0.7409918180453650    0.2443510399711944 Se
   0.9602534108082782    0.8867452151280957    0.3825808312104174 Se
   0.9915034108082783    0.1054952151280955    0.3825808312104175 Se
   0.1165034108082783    0.9804952151280955    0.3825808312104175 Se
   0.0227534108082781    0.3242452151280954    0.3825808312104175 Se
   0.1477534108082782    0.1992452151280955    0.3825808312104175 Se
   0.2727534108082781    0.0742452151280955    0.3825808312104175 Se
   0.3977534108082783    0.9492452151280955    0.3825808312104175 Se
   0.0540034108082783    0.5429952151280956    0.3825808312104175 Se
   0.1790034108082781    0.4179952151280954    0.3825808312104175 Se
   0.3040034108082781    0.2929952151280955    0.3825808312104175 Se
   0.4290034108082781    0.1679952151280955    0.3825808312104175 Se
   0.5540034108082781    0.0429952151280955    0.3825808312104175 Se
   0.6790034108082782    0.9179952151280956    0.3825808312104175 Se
   0.0852534108082781    0.7617452151280955    0.3825808312104174 Se
   0.2102534108082783    0.6367452151280955    0.3825808312104175 Se
   0.3352534108082783    0.5117452151280955    0.3825808312104175 Se
   0.4602534108082784    0.3867452151280956    0.3825808312104175 Se
   0.5852534108082783    0.2617452151280954    0.3825808312104175 Se
   0.7102534108082782    0.1367452151280954    0.3825808312104175 Se
   0.8352534108082784    0.0117452151280954    0.3825808312104175 Se
   0.2415034108082783    0.8554952151280953    0.3825808312104175 Se
   0.3665034108082785    0.7304952151280957    0.3825808312104174 Se
   0.4915034108082779    0.6054952151280953    0.3825808312104174 Se
   0.6165034108082785    0.4804952151280955    0.3825808312104174 Se
   0.7415034108082784    0.3554952151280954    0.3825808312104175 Se
   0.8665034108082785    0.2304952151280955    0.3825808312104175 Se
   0.5227534108082780    0.8242452151280955    0.3825808312104175 Se
   0.6477534108082781    0.6992452151280955    0.3825808312104175 Se
   0.7727534108082783    0.5742452151280955    0.3825808312104174 Se
   0.8977534108082783    0.4492452151280955    0.3825808312104175 Se
   0.8040034108082785    0.7929952151280955    0.3825808312104175 Se
   0.9290034108082780    0.6679952151280956    0.3825808312104175 Se
   0.6010331947639905    0.0494196601471500    0.8313182077635203 Se
   0.2676998614306572    0.0494196601471500    0.8313182077635203 Se
   0.9343665280973239    0.0494196601471500    0.8313182077635203 Se
   0.6962712900020857    0.1922768030042927    0.8313182077635203 Se
   0.3629379566687524    0.1922768030042928    0.8313182077635203 Se
   0.0296046233354191    0.1922768030042928    0.8313182077635203 Se
   0.7915093852401809    0.3351339458614355    0.8313182077635203 Se
   0.4581760519068475    0.3351339458614355    0.8313182077635203 Se
   0.1248427185735143    0.3351339458614355    0.8313182077635203 Se
   0.8867474804782762    0.4779910887185784    0.8313182077635203 Se
   0.5534141471449430    0.4779910887185784    0.8313182077635203 Se
   0.2200808138116096    0.4779910887185785    0.8313182077635203 Se
   0.6486522423830381    0.6208482315757209    0.8313182077635203 Se
   0.3153189090497048    0.6208482315757213    0.8313182077635203 Se
   0.9819855757163715    0.6208482315757213    0.8313182077635203 Se
   0.7438903376211334    0.7637053744328638    0.8313182077635203 Se
   0.4105570042878000    0.7637053744328641    0.8313182077635203 Se
   0.0772236709544666    0.7637053744328641    0.8313182077635203 Se
   0.8391284328592286    0.9065625172900068    0.8313182077635203 Se
   0.5057950995258955    0.9065625172900068    0.8313182077635203 Se
   0.1724617661925619    0.9065625172900068    0.8313182077635203 Se
   0.3134677728346140    0.9532483460333017    0.7495056388254159 Se
   0.9801344395012807    0.9532483460333018    0.7495056388254159 Se
   0.6468011061679474    0.9532483460333018    0.7495056388254159 Se
   0.4087058680727091    0.0961054888904445    0.7495056388254159 Se
   0.0753725347393759    0.0961054888904445    0.7495056388254159 Se
   0.7420392014060425    0.0961054888904445    0.7495056388254159 Se
   0.5039439633108044    0.2389626317475873    0.7495056388254159 Se
   0.1706106299774710    0.2389626317475874    0.7495056388254159 Se
   0.8372772966441377    0.2389626317475873    0.7495056388254159 Se
   0.5991820585488995    0.3818197746047302    0.7495056388254159 Se
   0.2658487252155665    0.3818197746047302    0.7495056388254159 Se
   0.9325153918822330    0.3818197746047302    0.7495056388254159 Se
   0.3610868204536615    0.5246769174618729    0.7495056388254159 Se
   0.0277534871203282    0.5246769174618731    0.7495056388254159 Se
   0.6944201537869948    0.5246769174618729    0.7495056388254159 Se
   0.4563249156917570    0.6675340603190160    0.7495056388254159 Se
   0.1229915823584233    0.6675340603190159    0.7495056388254159 Se
   0.7896582490250902    0.6675340603190160    0.7495056388254159 Se
   0.5515630109298518    0.8103912031761585    0.7495056388254159 Se
   0.2182296775965187    0.8103912031761588    0.7495056388254159 Se
   0.8848963442631854    0.8103912031761586    0.7495056388254159 Se
   0.4573959612684245    0.0007536282212844    0.6677845033197066 Se
   0.1240626279350912    0.0007536282212845    0.6677845033197066 Se
   0.7907292946017578    0.0007536282212844    0.6677845033197066 Se
   0.5526340565065199    0.1436107710784273    0.6677845033197066 Se
   0.2193007231731864    0.1436107710784272    0.6677845033197066 Se
   0.8859673898398530    0.1436107710784273    0.6677845033197066 Se
   0.6478721517446151    0.2864679139355700    0.6677845033197066 Se
   0.3145388184112816    0.2864679139355701    0.6677845033197066 Se
   0.9812054850779482    0.2864679139355701    0.6677845033197066 Se
   0.7431102469827102    0.4293250567927128    0.6677845033197066 Se
   0.4097769136493770    0.4293250567927128    0.6677845033197066 Se
   0.0764435803160435    0.4293250567927129    0.6677845033197066 Se
   0.5050150088874721    0.5721821996498557    0.6677845033197066 Se
   0.1716816755541389    0.5721821996498557    0.6677845033197066 Se
   0.8383483422208053    0.5721821996498557    0.6677845033197066 Se
   0.6002531041255674    0.7150393425069984    0.6677845033197067 Se
   0.2669197707922340    0.7150393425069984    0.6677845033197066 Se
   0.9335864374589007    0.7150393425069986    0.6677845033197066 Se
   0.6954911993636628    0.8578964853641412    0.6677845033197067 Se
   0.3621578660303291    0.8578964853641412    0.6677845033197067 Se
   0.0288245326969959    0.8578964853641414    0.6677845033197066 Se
   0.3177892847027265    0.9503206369318643    0.6055580957863086 Se
   0.9844559513693932    0.9503206369318643    0.6055580957863086 Se
   0.6511226180360600    0.9503206369318643    0.6055580957863086 Se
   0.4130273799408217    0.0931777797890070    0.6055580957863086 Se
   0.0796940466074884    0.0931777797890071    0.6055580957863086 Se
   0.7463607132741552    0.0931777797890070    0.6055580957863086 Se
   0.5082654751789171    0.2360349226461498    0.6055580957863086 Se
   0.1749321418455836    0.2360349226461499    0.6055580957863086 Se
   0.8415988085122503    0.2360349226461499    0.6055580957863086 Se
   0.6035035704170121    0.3788920655032926    0.6055580957863086 Se
   0.2701702370836790    0.3788920655032926    0.6055580957863086 Se
   0.9368369037503456    0.3788920655032927    0.6055580957863086 Se
   0.3654083323217739    0.5217492083604355    0.6055580957863086 Se
   0.0320749989884407    0.5217492083604353    0.6055580957863086 Se
   0.6987416656551074    0.5217492083604355    0.6055580957863086 Se
   0.4606464275598693    0.6646063512175783    0.6055580957863086 Se
   0.1273130942265360    0.6646063512175783    0.6055580957863086 Se
   0.7939797608932028    0.6646063512175783    0.6055580957863087 Se
   0.5558845227979647    0.8074634940747211    0.6055580957863087 Se
   0.2225511894646313    0.8074634940747210    0.6055580957863086 Se
   0.8892178561312980    0.8074634940747211    0.6055580957863087 Se
   0.4621937580401795    0.9979940419109620    0.5241890951556732 Se
   0.1288604247068461    0.9979940419109621    0.5241890951556732 Se
   0.7955270913735127    0.9979940419109620    0.5241890951556732 Se
   0.5574318532782746    0.1408511847681047    0.5241890951556732 Se
   0.2240985199449413    0.1408511847681048    0.5241890951556732 Se
   0.8907651866116081    0.1408511847681048    0.5241890951556732 Se
   0.6526699485163701    0.2837083276252475    0.5241890951556732 Se
   0.3193366151830365    0.2837083276252476    0.5241890951556732 Se
   0.9860032818497032    0.2837083276252476    0.5241890951556732 Se
   0.7479080437544652    0.4265654704823902    0.5241890951556732 Se
   0.4145747104211319    0.4265654704823905    0.5241890951556732 Se
   0.0812413770877985    0.4265654704823905    0.5241890951556732 Se
   0.5098128056592270    0.5694226133395330    0.5241890951556732 Se
   0.1764794723258936    0.5694226133395331    0.5241890951556732 Se
   0.8431461389925603    0.5694226133395331    0.5241890951556732 Se
   0.6050509008973224    0.7122797561966758    0.5241890951556734 Se
   0.2717175675639890    0.7122797561966759    0.5241890951556732 Se
   0.9383842342306555    0.7122797561966759    0.5241890951556732 Se
   0.7002889961354175    0.8551368990538187    0.5241890951556734 Se
   0.3669556628020842    0.8551368990538190    0.5241890951556734 Se
   0.0336223294687508    0.8551368990538187    0.5241890951556732 Se
   0.6054710837422993    0.0460624091549674    0.4427015086099986 Se
   0.2721377504089658    0.0460624091549674    0.4427015086099986 Se
   0.9388044170756324    0.0460624091549675    0.4427015086099986 Se
   0.7007091789803943    0.1889195520121102    0.4427015086099986 Se
   0.3673758456470610    0.1889195520121102    0.4427015086099986 Se
   0.0340425123137277    0.1889195520121103    0.4427015086099986 Se
   0.7959472742184894    0.3317766948692528    0.4427015086099986 Se
   0.4626139408851562    0.3317766948692530    0.4427015086099986 Se
   0.1292806075518230    0.3317766948692530    0.4427015086099986 Se
   0.8911853694565848    0.4746338377263961    0.4427015086099986 Se
   0.5578520361232516    0.4746338377263961    0.4427015086099986 Se
   0.2245187027899183    0.4746338377263958    0.4427015086099986 Se
   0.6530901313613467    0.6174909805835386    0.4427015086099986 Se
   0.3197567980280135    0.6174909805835386    0.4427015086099986 Se
   0.9864234646946801    0.6174909805835386    0.4427015086099986 Se
   0.7483282265994420    0.7603481234406813    0.4427015086099987 Se
   0.4149948932661087    0.7603481234406813    0.4427015086099986 Se
   0.0816615599327752    0.7603481234406814    0.4427015086099986 Se
   0.8435663218375371    0.9032052662978240    0.4427015086099987 Se
   0.5102329885042040    0.9032052662978244    0.4427015086099987 Se
   0.1768996551708706    0.9032052662978240    0.4427015086099987 Se
