Nb56 Bi76 Se226
1.0
  18.3274938734689954    0.0000000000000000    0.0000000000000011
   9.1637469363574500   15.8720752830711280    0.0000000000000011
   0.0000000000000000    0.0000000000000000   49.9893053307188922
Nb Bi Se
56 76 226
direct
   0.0388934672068599    0.0000609651162487    0.3555642256810950 Nb
   0.1037860509740836    0.1417831793659913    0.3571670782832467 Nb
   0.3188337474274756    0.0701284148743336    0.3559910269983188 Nb
   0.5371758996082334    0.0008321720115101    0.3584653818986497 Nb
   0.1819685585646228    0.2892823130432487    0.3574008152560711 Nb
   0.3938104059477357    0.2248031580271366    0.3555301173678716 Nb
   0.6002383980505652    0.1544729342061102    0.3554091206381755 Nb
   0.8180001604845012    0.0774409876564669    0.3580962902751461 Nb
   0.0378643724449082    0.5042611356928014    0.3572504190318200 Nb
   0.2518593035623469    0.4294899074088118    0.3562083484771352 Nb
   0.4638626991677365    0.3664420515527747    0.3557834908850667 Nb
   0.6709175132518402    0.2926794084229542    0.3557016577534559 Nb
   0.8941758616800046    0.2119729994576514    0.3585618260684492 Nb
   0.1038044222598867    0.6492475125311573    0.3563807337902439 Nb
   0.3297490197102991    0.5741815441156323    0.3569570733921704 Nb
   0.5412353506524702    0.5022857084075810    0.3553209209935225 Nb
   0.7498873826425542    0.4362372799452083    0.3558315648230677 Nb
   0.9614511261568340    0.3611387695023224    0.3584454187918760 Nb
   0.1767609868667886    0.7943065897069768    0.3561689684178932 Nb
   0.3959440532855725    0.7195283430785552    0.3557202814971037 Nb
   0.6037640996299627    0.6508037491877779    0.3561898940746680 Nb
   0.8178095278159032    0.5789065708039606    0.3586077124275284 Nb
   0.2451158039733399    0.9412286810094095    0.3569160599008446 Nb
   0.4619806497621431    0.8612745203474643    0.3569819578367971 Nb
   0.6698075622308884    0.7939460764227453    0.3558300826914177 Nb
   0.8980522338316883    0.7103719336669431    0.3582868016147292 Nb
   0.7528957804039805    0.9335552607534352    0.3565426583126628 Nb
   0.9671441525601617    0.8651024186346891    0.3555539664231605 Nb
   0.0278991270397285    0.0115093456600075    0.2341556814971194 Nb
   0.1050144102798521    0.1438011502934247    0.2329613877832986 Nb
   0.3267741359662296    0.0782114671259526    0.2348674202193089 Nb
   0.5332490670864072    0.0113833569297039    0.2324415483856241 Nb
   0.1798893395202466    0.2926206906506430    0.2338272298080473 Nb
   0.3948209837362880    0.2193872968004055    0.2335272006998442 Nb
   0.6059800673973287    0.1409541110340906    0.2345128559911263 Nb
   0.8177949859440807    0.0747159073051200    0.2336250510838502 Nb
   0.0340085093547122    0.5090652887810799    0.2335708708975160 Nb
   0.2466890142161866    0.4292325681546048    0.2334046435864728 Nb
   0.4655553835180118    0.3595724806589954    0.2342026901693199 Nb
   0.6748940555585329    0.2952219467709205    0.2326710048664396 Nb
   0.8980818165470593    0.2215019704303026    0.2329597139470717 Nb
   0.1059940611485683    0.6475398048345922    0.2348732387177839 Nb
   0.3164318636377002    0.5862842846351891    0.2348807339420891 Nb
   0.5373924247634784    0.5032905292833334    0.2346301313902742 Nb
   0.7455885489038355    0.4379011065199973    0.2359882502042961 Nb
   0.9626276001400673    0.3716189302190091    0.2340274892970608 Nb
   0.1745398305578448    0.7900630339222859    0.2343213674828352 Nb
   0.3941785181746112    0.7250074943369849    0.2328703975485128 Nb
   0.6072671599108421    0.6485812358751409    0.2330232370384140 Nb
   0.8166914878193897    0.5811117040895168    0.2338426424242405 Nb
   0.2450218371974468    0.9379006254195026    0.2352082346799089 Nb
   0.4637371265544065    0.8645075779060811    0.2331431087403259 Nb
   0.6863028544228225    0.7878443424733368    0.2342515901034060 Nb
   0.8936134368996360    0.7238110836470019    0.2335395664413009 Nb
   0.7465660532302242    0.9368656694346376    0.2350684935653407 Nb
   0.9599361539337711    0.8630973135374717    0.2352041518217662 Nb
   0.6851522428921000    0.7202699307489654    0.7660709885923052 Bi
   0.5769719629628985    0.9773585488872384    0.7674195221692036 Bi
   0.6306221651123328    0.3454891383269518    0.7659063080101604 Bi
   0.5252298253150540    0.6192220897512493    0.7672820142655459 Bi
   0.4152416082227729    0.8756490318237418    0.7679243019425108 Bi
   0.4783453883920988    0.2380637049956851    0.7678643668323986 Bi
   0.3701593051929997    0.5038515772535312    0.7664788819896312 Bi
   0.2598291367462174    0.7747247110096598    0.7684814842715230 Bi
   0.1647898471480144    0.0206507520657621    0.7680444189343960 Bi
   0.3180045908443566    0.1335877564788212    0.7675220877783201 Bi
   0.2003433404947773    0.3990432259430071    0.7677630947335986 Bi
   0.1034256369542091    0.6580639413541377    0.7657351363694990 Bi
   0.9998981540200973    0.9263770865694996    0.7676717438163189 Bi
   0.0548238954375190    0.2912304678192071    0.7659437608231801 Bi
   0.9492801351589617    0.5620142467086225    0.7658062970167010 Bi
   0.8459145132502816    0.8126422419893186    0.7667141646740107 Bi
   0.8931858037139735    0.1945446475944428    0.7669433613368799 Bi
   0.7874221749673944    0.4555463498322516    0.7667383986233739 Bi
   0.7353114257919655    0.0895264161912002    0.7669356719381371 Bi
   0.8262910373994461    0.6992360074962978    0.6885821170766188 Bi
   0.7139060608341584    0.9607313969632088    0.6888693833956472 Bi
   0.7759324089584887    0.3281944976566198    0.6869978652822856 Bi
   0.6679362480940650    0.5932452563217139    0.6875781713352970 Bi
   0.5582459661320074    0.8579624903539304    0.6871091126325862 Bi
   0.6161619601697088    0.2210606128134472    0.6866878005661086 Bi
   0.5058732941179616    0.4890429567399130    0.6852060960186993 Bi
   0.4053991354507375    0.7527299296081971    0.6854148897193895 Bi
   0.3017589338220063    0.0115989699365295    0.6857048392242283 Bi
   0.4522518321301195    0.1271026779362686    0.6870722073653041 Bi
   0.3516332940215985    0.3745306467558865    0.6887024178447967 Bi
   0.2473944931235989    0.6469883007595364    0.6879516866907682 Bi
   0.1400635715468684    0.9121605606112408    0.6868362430958478 Bi
   0.1955870030964242    0.2733105248193741    0.6863332980072772 Bi
   0.0817548881308021    0.5428852521185688    0.6879873172611081 Bi
   0.9841770690910762    0.8018246532644608    0.6878441848396183 Bi
   0.0351904299661572    0.1694136278622925    0.6868550097437385 Bi
   0.9314438681955771    0.4309412374035477    0.6854407659303560 Bi
   0.8735560806159677    0.0713340161408050    0.6858909954104018 Bi
   0.8298229673257369    0.6961715442608787    0.5633174593173882 Bi
   0.7251224200484024    0.9568277766638205    0.5669139114285491 Bi
   0.7724989546129610    0.3329699646829804    0.5662821987488111 Bi
   0.6685004719284376    0.5912197654141668    0.5654749779634776 Bi
   0.5651447278739233    0.8523132784706122    0.5673854883646051 Bi
   0.6217054678073328    0.2197802360270650    0.5670152804700982 Bi
   0.5055769871057501    0.4900829706471093    0.5663150581753935 Bi
   0.4058073117291227    0.7489565465946938    0.5650620139000656 Bi
   0.2949106526654158    0.0148638673364321    0.5665231759908996 Bi
   0.4583868038684321    0.1177205694853914    0.5681355588274992 Bi
   0.3569588393903329    0.3779802172303736    0.5645521176169231 Bi
   0.2455893430713533    0.6397200445662125    0.5677052525187571 Bi
   0.1489865149915517    0.9058489207955355    0.5671686162317388 Bi
   0.2059000426950174    0.2685534421385588    0.5649290517859782 Bi
   0.0966405341030793    0.5348640382190721    0.5642099505965797 Bi
   0.9904659676466562    0.8011048963130375    0.5623544234509655 Bi
   0.0403151455317024    0.1676099562734081    0.5667336948130023 Bi
   0.9320081318198667    0.4276970181335293    0.5703932547854277 Bi
   0.8832194703170955    0.0656672990951496    0.5694330859610246 Bi
   0.8143674571184565    0.5717761105143334    0.4863824706207111 Bi
   0.7048453036974383    0.8383847190586745    0.4877074662654242 Bi
   0.7574789680351861    0.2049749589249489    0.4863937524299203 Bi
   0.6528166295479199    0.4696769336078645    0.4865578692279533 Bi
   0.5539800049797191    0.7302467689008283    0.4883878168920667 Bi
   0.6025963937871325    0.0956706870896386    0.4876763144932337 Bi
   0.4912546955932022    0.3624147379011767    0.4864754882280675 Bi
   0.3955279101565023    0.6256523146103097    0.4855606131773449 Bi
   0.2869492137433320    0.8867106274212834    0.4872017890562349 Bi
   0.4457231628503503    0.9935211988891075    0.4870671950441631 Bi
   0.3458699150215084    0.2525065494986680    0.4861245103965089 Bi
   0.2435000503879977    0.5153010314822467    0.4867255347686771 Bi
   0.1264832855625563    0.7852258807301332    0.4866989992095764 Bi
   0.1808565665959734    0.1489583783573087    0.4869786262911906 Bi
   0.0821299113630781    0.4087855629462678    0.4865157741586913 Bi
   0.9742994261407169    0.6834023205008503    0.4862544660945800 Bi
   0.0269517007627661    0.0457969990028110    0.4854359682728860 Bi
   0.9156482672546611    0.3107746193377582    0.4857178815472052 Bi
   0.8656242669472584    0.9406092680736783    0.4870088940848663 Bi
   0.9380155590340451    0.9818148025486300    0.2008786057890244 Se
   0.0095257602511961    0.1288016488475980    0.1982358109565770 Se
   0.2219666977308190    0.0507826425516204    0.1990120130477844 Se
   0.4400979981811986    0.9773440996398917    0.1997136167360584 Se
   0.0873125592860797    0.2641412332260496    0.1986709889508909 Se
   0.3043655595842608    0.1972018698421910    0.2014436326967479 Se
   0.5100094216214476    0.1262520596723739    0.2025230881901707 Se
   0.7302042506260381    0.0531608296141360    0.2007014856248532 Se
   0.9441354983144928    0.4811921473634453    0.1993051406640431 Se
   0.1554784278570789    0.4133622577261235    0.2012414919010830 Se
   0.3713617226446932    0.3400928675067185    0.1996565822703585 Se
   0.5813828815966354    0.2697595463007769    0.2012234083392596 Se
   0.8020459500657090    0.1924057896332047    0.2020928254445583 Se
   0.0004049356758128    0.6320310825188996    0.1993087158320959 Se
   0.2309035026235507    0.5504248470905667    0.2008222351078074 Se
   0.4368503912141433    0.4815808724637211    0.2021767900554998 Se
   0.6532453539279766    0.4057711831005777    0.1994287507601384 Se
   0.8724499953006710    0.3358516558572485    0.1992028136534577 Se
   0.0824573876889075    0.7698507548545294    0.2013530566652378 Se
   0.2950157691290406    0.6939197468784764    0.1994584278976076 Se
   0.5098174404697623    0.6248516004715600    0.1991693803600767 Se
   0.7335562904918049    0.5541151933028654    0.1992032459419876 Se
   0.1483585968390150    0.9093463536943847    0.2018840676002832 Se
   0.3746536328065884    0.8393736646415586    0.1990730979408424 Se
   0.5794194329312330    0.7730021160179450    0.2014987135550385 Se
   0.8051821359125929    0.6849458580742154    0.1996152371195175 Se
   0.6599684991966833    0.9032195554076958    0.2003011067325923 Se
   0.8659676397164940    0.8377435589529727    0.2001554326080419 Se
   0.0578871054841651    0.8864590639656663    0.3229041516271208 Se
   0.1261658911415377    0.0310869743819696    0.3235385266116265 Se
   0.3492895027031634    0.9519632058814417    0.3246488340483336 Se
   0.5561449200764538    0.8855441592017826    0.3232191872800590 Se
   0.2032100164846180    0.1663222470149396    0.3251438426852016 Se
   0.4102165467418723    0.1043178339497294    0.3236803360333819 Se
   0.6320418139713855    0.0299440583172783    0.3243216692721738 Se
   0.8436364365161239    0.9548349908093560    0.3195842272740772 Se
   0.0611850545123906    0.3864290711219565    0.3228276982457951 Se
   0.2797032249797542    0.3160974273376025    0.3224234587435408 Se
   0.4892455492433296    0.2415813207813551    0.3200095508871579 Se
   0.6981867999918383    0.1738489367414232    0.3231058498271871 Se
   0.9174499463780883    0.1040503975518363    0.3240939268971774 Se
   0.1299088763228457    0.5272078220007453    0.3237132706296828 Se
   0.3449841657934982    0.4586746789946409    0.3238214660267530 Se
   0.5540255012116797    0.3856316220016787    0.3232004583738984 Se
   0.7727087260480333    0.3206887926278797    0.3250162148641087 Se
   0.9915368416370938    0.2352852720607680    0.3217571852642629 Se
   0.2044407413009488    0.6710986424429026    0.3219800015233674 Se
   0.4164962879401429    0.5994319890568007    0.3218298663919737 Se
   0.6350381799367847    0.5254936295272189    0.3227904258878264 Se
   0.8527421578424454    0.4531685672601057    0.3222536900051172 Se
   0.2718373084623439    0.8220589381343285    0.3234932064450577 Se
   0.4866834919816404    0.7434756235765094    0.3224944841435847 Se
   0.7037387442987266    0.6718199173668883    0.3219070019425122 Se
   0.9149327086773010    0.5965147868458300    0.3226331897622293 Se
   0.7734518564281307    0.8119579780787882    0.3233654000027075 Se
   0.9893494032354524    0.7472939512076814    0.3204421032565332 Se
   0.9397671664360285    0.9845041683097560    0.2639283728398712 Se
   0.0054737085272951    0.1323747290315511    0.2682423401037293 Se
   0.2234959419037955    0.0461876553651985    0.2706715644943291 Se
   0.4369292687579541    0.9837645632633811    0.2678097903513350 Se
   0.0805346627387575    0.2715486141453807    0.2698141145718673 Se
   0.2942141405805345    0.1995654080094921    0.2675189118034464 Se
   0.5139390465731899    0.1233554940032239    0.2683285562659797 Se
   0.7239941484283631    0.0528111015039779    0.2653211354219649 Se
   0.9447303161802940    0.4766012285291364    0.2653605264850966 Se
   0.1593200715591310    0.4086213011815945    0.2671796114194220 Se
   0.3689685512581751    0.3412564715479520    0.2680963743789299 Se
   0.5738168046375283    0.2736965775427887    0.2698978134775299 Se
   0.7951206320320428    0.2042917688695684    0.2683268783275867 Se
   0.0127651046775483    0.6235482747411153    0.2657024763837895 Se
   0.2232473344901738    0.5526451371976406    0.2678697393964280 Se
   0.4430811886083960    0.4726361287134315    0.2662679479171512 Se
   0.6549037067362738    0.4054598943780930    0.2677755333492869 Se
   0.8727550517028855    0.3373575386367133    0.2695952289988195 Se
   0.0700026607521704    0.7799637380580657    0.2663341093690437 Se
   0.2916952948505838    0.6988583814914785    0.2682144686809069 Se
   0.5139315635034910    0.6281766426149697    0.2674963581729770 Se
   0.7272507458140397    0.5519805991524082    0.2685020007139723 Se
   0.1607405760817019    0.9040712640419811    0.2672071863354731 Se
   0.3702663846961622    0.8439052063538663    0.2677607372597106 Se
   0.5835573345975358    0.7614341166639974    0.2670204805922876 Se
   0.7962340429236980    0.6970450917622295    0.2662209072995523 Se
   0.6568279953297301    0.9079503061488241    0.2655928086370165 Se
   0.8728408481972876    0.8356176044196437    0.2689525835673104 Se
   0.0586087070086581    0.8894725830181217    0.3895560130599283 Se
   0.1383041187039628    0.0209113323218536    0.3900959076830496 Se
   0.3447723415676529    0.9618570123898760    0.3914654056032507 Se
   0.5648084621851742    0.8823930089785558    0.3915422584468340 Se
   0.1983336826385742    0.1770476122373615    0.3902265130171091 Se
   0.4116253457733574    0.0980183061299068    0.3886752718965645 Se
   0.6214221620766658    0.0400302472205173    0.3917324961634190 Se
   0.8539200752477631    0.9540399659001602    0.3927594910570425 Se
   0.0550053073116099    0.3890865355479450    0.3913489452200720 Se
   0.2759880850253870    0.3140946796007656    0.3900775784230622 Se
   0.4901272103471065    0.2427400106246159    0.3892448302011458 Se
   0.7044219927418762    0.1745901078452488    0.3899803316503528 Se
   0.9176440250313149    0.0954005427023815    0.3933199457918136 Se
   0.1320614843490721    0.5299184680916432    0.3897404330694006 Se
   0.3460736421112947    0.4565118576202974    0.3896825861828581 Se
   0.5592794647861874    0.3820485799769738    0.3914029314645344 Se
   0.7717127773338748    0.3200173753285127    0.3917051491167089 Se
   0.9968698065151781    0.2328730000010257    0.3881614105488475 Se
   0.2044960272685745    0.6655386177731577    0.3931343358327952 Se
   0.4137019590025104    0.6035850701696210    0.3915227228013274 Se
   0.6323694334895567    0.5205363166844525    0.3892200495273414 Se
   0.8460144368192805    0.4603708350853555    0.3923894740859282 Se
   0.2830123945658491    0.8079215225637427    0.3908492526624028 Se
   0.4853784893397483    0.7440286288910590    0.3915081458310866 Se
   0.6953117576488833    0.6777483193571920    0.3914006671844123 Se
   0.9213116951061151    0.5998125651033097    0.3889614299969725 Se
   0.7707291598317436    0.8078053306507776    0.3902811088846958 Se
   0.9838532296550344    0.7471836524792208    0.3902657004444957 Se
   0.8231010591783978    0.6983436000162258    0.7996407719450332 Se
   0.7118294889485325    0.9693476756351838    0.8011107245015814 Se
   0.7649470908058207    0.3325732827857014    0.8003400506769519 Se
   0.6676795813945879    0.5966075124428315    0.8004467950920785 Se
   0.5531741290777796    0.8627065128230862    0.8029245731691675 Se
   0.6120052402748233    0.2230309232897239    0.7997265125247907 Se
   0.5022566248798137    0.4911391177612696    0.8010619225983850 Se
   0.4050674845276008    0.7451957789396766    0.7994341329332149 Se
   0.2948290388882188    0.0118509456702911    0.7990220944574002 Se
   0.4545028176501331    0.1188549857619902    0.7993482633853995 Se
   0.3473443136626724    0.3835436097118124    0.7993632270139236 Se
   0.2421098996050232    0.6404782331181998    0.7993499393470945 Se
   0.1419443527274837    0.9130819975588821    0.8004621457418357 Se
   0.1910243625238121    0.2773580891009000    0.7991810810660139 Se
   0.0885834337698869    0.5398572883477558    0.7993377825848369 Se
   0.9865539378992840    0.8032066290013544    0.7990796991056807 Se
   0.0298604702906929    0.1722771278444006    0.7999707205745986 Se
   0.9311511812865735    0.4336258217137129    0.8023351592662050 Se
   0.8811172697318078    0.0626786490923787    0.8006317498627004 Se
   0.7988907959337183    0.5811374757629507    0.7265236777278735 Se
   0.7029207968039105    0.8398098319216137    0.7273798899555671 Se
   0.7536950990590819    0.2103111646571519    0.7253870755278236 Se
   0.6443518432181289    0.4741641586554209    0.7284161222884330 Se
   0.5397149462873555    0.7296737634929045    0.7260153116393560 Se
   0.5984888031696957    0.1027053530079415    0.7267405783017805 Se
   0.4888041372125867    0.3691635523496174    0.7260876112932667 Se
   0.3868555502775924    0.6282194741052934    0.7280123584132684 Se
   0.2866817741816426    0.8916615328773948    0.7262759834196857 Se
   0.4423612232050997    0.9928208143482150    0.7274478924707785 Se
   0.3284831691852663    0.2640941761650125    0.7283577939811714 Se
   0.2233256272767547    0.5277031656918069    0.7263603534904791 Se
   0.1145699747994501    0.7893691127740591    0.7260168695135255 Se
   0.1727335281539954    0.1624799071058889    0.7271630087089272 Se
   0.0613324771984383    0.4232049409260347    0.7276594911009985 Se
   0.9571402810962770    0.6812150206958674    0.7279252873880957 Se
   0.0166999714318317    0.0490268904654646    0.7268619099168782 Se
   0.9151515356568287    0.3059649918641850    0.7269307953778034 Se
   0.8595666957328192    0.9415306124660612    0.7275573761004192 Se
   0.6767560736587938    0.7228592281820673    0.6538494247779927 Se
   0.5828352131306029    0.9731394063362780    0.6551079232913056 Se
   0.6291715237681029    0.3513244377938132    0.6521567783083926 Se
   0.5183150743947987    0.6137915586680691    0.6546457316032759 Se
   0.4171097807491582    0.8730613609708147    0.6567919695357257 Se
   0.4747200514030862    0.2421151576821735    0.6541611565720709 Se
   0.3674731680528805    0.5027947382691405    0.6566181721613897 Se
   0.2663478909543955    0.7726526591976454    0.6543389628816895 Se
   0.1656231557758402    0.0212403629909527    0.6552061100973533 Se
   0.3168352002734931    0.1347028779635301    0.6544917182332607 Se
   0.2090730237895849    0.3985615364765721    0.6544996940813418 Se
   0.1029905093605363    0.6547176812071931    0.6537436530128318 Se
   0.0043557351848545    0.9229032716728028    0.6548669516538824 Se
   0.0552622090478635    0.2860210875485060    0.6519644825820522 Se
   0.9491360484882325    0.5580142640524882    0.6536572364769784 Se
   0.8421764880506493    0.8256173914565513    0.6535569771256542 Se
   0.8958397753631300    0.1837451190287005    0.6552579254337983 Se
   0.7891925577709105    0.4537730834761058    0.6532085334129829 Se
   0.7363971751344339    0.0872122824535642    0.6550407000118962 Se
   0.8170760629396989    0.5736314815824335    0.5995003738978990 Se
   0.7069916890071437    0.8376693959927978    0.5980523084532920 Se
   0.7595326554939814    0.2043379039680449    0.6001403942168453 Se
   0.6545152454532115    0.4625385502311242    0.5993778587575780 Se
   0.5530030029793247    0.7309726689644332    0.5994824135399883 Se
   0.6010356978761365    0.0987345602202952    0.5996294313135544 Se
   0.5025853500793243    0.3607479311130017    0.5985097303937608 Se
   0.3801896831275199    0.6301303718378840    0.5990737767901334 Se
   0.2908722159307439    0.8849289654445042    0.5984860593671690 Se
   0.4377647398099954    0.9996302042690450    0.5974726195693217 Se
   0.3409995593631101    0.2556582128154714    0.5968830670606119 Se
   0.2379373615992416    0.5114141673939180    0.5974249572645047 Se
   0.1238369994722297    0.7817735493108573    0.5987163888800421 Se
   0.1757916388868703    0.1596582345665153    0.5996709303701894 Se
   0.0757840443397412    0.4177251739577678    0.5999869715403324 Se
   0.9651649428054120    0.6790231115228597    0.6003909613105640 Se
   0.0251149687588967    0.0493852867603947    0.5998639122425594 Se
   0.9189595079704451    0.3094550641278891    0.5974852028415886 Se
   0.8650867350689078    0.9431550425488033    0.6014170465860683 Se
   0.6856073331677899    0.7132904886510577    0.5260848238372923 Se
   0.5937073172875752    0.9686235516525729    0.5264297772201526 Se
   0.6404382739308742    0.3439037952350530    0.5248990833342643 Se
   0.5277346511497421    0.6035889908245831    0.5249691447568702 Se
   0.4236239857820585    0.8701208863204708    0.5275215198085281 Se
   0.4842928693921699    0.2335563705457249    0.5284908822452373 Se
   0.3730448306411440    0.5070181715549090    0.5270959795240686 Se
   0.2667944856271569    0.7719684595340190    0.5255450091783800 Se
   0.1607358586865090    0.0297047614923016    0.5273756942423121 Se
   0.3178595531190708    0.1330134209553585    0.5277459438430684 Se
   0.2134458847450233    0.3983237661885544    0.5265616747433929 Se
   0.1048255596599968    0.6594406761783559    0.5271513857081290 Se
   0.0089082624163994    0.9203306973842407    0.5257976005683622 Se
   0.0604115339054539    0.2901033059941948    0.5277188325703810 Se
   0.9558272080299443    0.5535556246122413    0.5274661885797444 Se
   0.8498002904651103    0.8143595492790153    0.5266563655948201 Se
   0.9002563755961950    0.1893723932910400    0.5257415162868672 Se
   0.7954075972677905    0.4512291941989383    0.5289108473792759 Se
   0.7443134170492200    0.0783567845175427    0.5253792155028419 Se
   0.8338104249891892    0.6944943225159861    0.4545504207804712 Se
   0.7244448520220446    0.9612572927081703    0.4535509338344994 Se
   0.7691696514615693    0.3320442377091015    0.4558777382267342 Se
   0.6783044031756600    0.5857540543834528    0.4535051906702119 Se
   0.5661348910252378    0.8536350474271257    0.4537312344797549 Se
   0.6121743154862404    0.2266288723919592    0.4549318203296918 Se
   0.5163244602185247    0.4801784653493933    0.4541338318195137 Se
   0.4140669133429620    0.7503930672520502    0.4544981165053816 Se
   0.3030742578979025    0.0147360160876444    0.4553478372941813 Se
   0.4536269638264661    0.1224822944036494    0.4533837234609430 Se
   0.3498194439169376    0.3772774604765231    0.4536710540474025 Se
   0.2481188213469802    0.6441585838561360    0.4510494624441250 Se
   0.1433596797274377    0.9088356268243835    0.4525674556126493 Se
   0.2062577215801924    0.2723298273281161    0.4532086033968912 Se
   0.0900444461179317    0.5356371543765660    0.4553635317668389 Se
   0.9853446991554934    0.8078755826562425    0.4526165150507366 Se
   0.0401968684172633    0.1709547712724830    0.4530828792493412 Se
   0.9317253601287659    0.4315482818704205    0.4530463565979504 Se
   0.8907338815019284    0.0552677798997040    0.4552646588533831 Se
