Nb136 Bi188 Se554
1.0
  19.2843459667862440    0.0000000000000000    0.0000000000000012
   1.2441513542679392   36.6338670397115962    0.0000000000000022
   0.0000000000000000    0.0000000000000000   49.9893053307188922
Nb Bi Se
136 188 554
direct
   0.1480553893879222    0.8384340062345627    0.3566429020965913 Nb
   0.3245259776232161    0.8531398885875038    0.3566429020965913 Nb
   0.5009965658585099    0.8678457709404448    0.3566429020965913 Nb
   0.6774671540938043    0.8825516532933861    0.3566429020965913 Nb
   0.8539377423290986    0.8972575356463269    0.3566429020965913 Nb
   0.0892318599761574    0.7501987121169158    0.3566429020965913 Nb
   0.2657024482114516    0.7649045944698568    0.3566429020965913 Nb
   0.4421730364467458    0.7796104768227979    0.3566429020965913 Nb
   0.6186436246820397    0.7943163591757391    0.3566429020965913 Nb
   0.7951142129173338    0.8090222415286801    0.3566429020965913 Nb
   0.9715848011526280    0.8237281238816215    0.3566429020965913 Nb
   0.0304083305643926    0.6619634179992688    0.3566429020965913 Nb
   0.2068789187996868    0.6766693003522098    0.3566429020965913 Nb
   0.3833495070349809    0.6913751827051511    0.3566429020965913 Nb
   0.5598200952702749    0.7060810650580920    0.3566429020965913 Nb
   0.7362906835055691    0.7207869474110332    0.3566429020965913 Nb
   0.9127612717408632    0.7354928297639747    0.3566429020965913 Nb
   0.1480553893879221    0.5884340062345629    0.3566429020965913 Nb
   0.3245259776232162    0.6031398885875040    0.3566429020965913 Nb
   0.5009965658585104    0.6178457709404452    0.3566429020965913 Nb
   0.6774671540938042    0.6325516532933864    0.3566429020965913 Nb
   0.8539377423290988    0.6472575356463275    0.3566429020965913 Nb
   0.0892318599761573    0.5001987121169157    0.3566429020965913 Nb
   0.2657024482114513    0.5149045944698568    0.3566429020965913 Nb
   0.4421730364467455    0.5296104768227980    0.3566429020965913 Nb
   0.6186436246820397    0.5443163591757391    0.3566429020965913 Nb
   0.7951142129173336    0.5590222415286807    0.3566429020965913 Nb
   0.9715848011526279    0.5737281238816216    0.3566429020965913 Nb
   0.0304083305643927    0.4119634179992688    0.3566429020965913 Nb
   0.2068789187996869    0.4266693003522099    0.3566429020965913 Nb
   0.3833495070349810    0.4413751827051510    0.3566429020965913 Nb
   0.5598200952702751    0.4560810650580921    0.3566429020965913 Nb
   0.7362906835055691    0.4707869474110335    0.3566429020965913 Nb
   0.9127612717408631    0.4854928297639746    0.3566429020965913 Nb
   0.1480553893879220    0.3384340062345629    0.3566429020965913 Nb
   0.3245259776232162    0.3531398885875041    0.3566429020965913 Nb
   0.5009965658585104    0.3678457709404452    0.3566429020965913 Nb
   0.6774671540938043    0.3825516532933864    0.3566429020965913 Nb
   0.8539377423290986    0.3972575356463276    0.3566429020965913 Nb
   0.0892318599761573    0.2501987121169158    0.3566429020965913 Nb
   0.2657024482114516    0.2649045944698570    0.3566429020965913 Nb
   0.4421730364467454    0.2796104768227982    0.3566429020965913 Nb
   0.6186436246820396    0.2943163591757393    0.3566429020965913 Nb
   0.7951142129173340    0.3090222415286805    0.3566429020965913 Nb
   0.9715848011526279    0.3237281238816218    0.3566429020965913 Nb
   0.0304083305643927    0.1619634179992688    0.3566429020965913 Nb
   0.2068789187996868    0.1766693003522099    0.3566429020965913 Nb
   0.3833495070349809    0.1913751827051511    0.3566429020965913 Nb
   0.5598200952702749    0.2060810650580922    0.3566429020965913 Nb
   0.7362906835055690    0.2207869474110334    0.3566429020965913 Nb
   0.9127612717408633    0.2354928297639746    0.3566429020965913 Nb
   0.1480553893879220    0.0884340062345629    0.3566429020965913 Nb
   0.3245259776232163    0.1031398885875041    0.3566429020965913 Nb
   0.5009965658585104    0.1178457709404453    0.3566429020965913 Nb
   0.6774671540938043    0.1325516532933864    0.3566429020965913 Nb
   0.8539377423290985    0.1472575356463275    0.3566429020965913 Nb
   0.0892318599761573    0.0001987121169159    0.3566429020965913 Nb
   0.2657024482114515    0.0149045944698571    0.3566429020965913 Nb
   0.4421730364467457    0.0296104768227982    0.3566429020965913 Nb
   0.6186436246820398    0.0443163591757394    0.3566429020965913 Nb
   0.7951142129173339    0.0590222415286805    0.3566429020965913 Nb
   0.9715848011526279    0.0737281238816217    0.3566429020965913 Nb
   0.0304083305643926    0.9119634179992686    0.3566429020965913 Nb
   0.2068789187996867    0.9266693003522098    0.3566429020965913 Nb
   0.3833495070349810    0.9413751827051512    0.3566429020965913 Nb
   0.5598200952702750    0.9560810650580924    0.3566429020965913 Nb
   0.7362906835055691    0.9707869474110336    0.3566429020965913 Nb
   0.9127612717408633    0.9854928297639747    0.3566429020965913 Nb
   0.1482011288026426    0.8381751052402804    0.2336917587878817 Nb
   0.3246717170379369    0.8528809875932215    0.2336917587878817 Nb
   0.5011423052732310    0.8675868699461627    0.2336917587878817 Nb
   0.6776128935085249    0.8822927522991040    0.2336917587878817 Nb
   0.8540834817438192    0.8969986346520451    0.2336917587878817 Nb
   0.0893775993908779    0.7499398111226333    0.2336917587878817 Nb
   0.2658481876261721    0.7646456934755744    0.2336917587878817 Nb
   0.4423187758614662    0.7793515758285157    0.2336917587878817 Nb
   0.6187893640967606    0.7940574581814571    0.2336917587878817 Nb
   0.7952599523320545    0.8087633405343980    0.2336917587878817 Nb
   0.9717305405673485    0.8234692228873391    0.2336917587878817 Nb
   0.0305540699791132    0.6617045170049864    0.2336917587878817 Nb
   0.2070246582144072    0.6764103993579275    0.2336917587878817 Nb
   0.3834952464497014    0.6911162817108686    0.2336917587878817 Nb
   0.5599658346849955    0.7058221640638097    0.2336917587878817 Nb
   0.7364364229202897    0.7205280464167508    0.2336917587878817 Nb
   0.9129070111555839    0.7352339287696924    0.2336917587878817 Nb
   0.1482011288026426    0.5881751052402805    0.2336917587878817 Nb
   0.3246717170379368    0.6028809875932216    0.2336917587878817 Nb
   0.5011423052732309    0.6175868699461627    0.2336917587878817 Nb
   0.6776128935085249    0.6322927522991039    0.2336917587878817 Nb
   0.8540834817438192    0.6469986346520450    0.2336917587878817 Nb
   0.0893775993908780    0.4999398111226332    0.2336917587878817 Nb
   0.2658481876261720    0.5146456934755744    0.2336917587878817 Nb
   0.4423187758614660    0.5293515758285156    0.2336917587878817 Nb
   0.6187893640967604    0.5440574581814569    0.2336917587878817 Nb
   0.7952599523320546    0.5587633405343980    0.2336917587878817 Nb
   0.9717305405673485    0.5734692228873391    0.2336917587878817 Nb
   0.0305540699791133    0.4117045170049863    0.2336917587878817 Nb
   0.2070246582144073    0.4264103993579275    0.2336917587878817 Nb
   0.3834952464497016    0.4411162817108687    0.2336917587878817 Nb
   0.5599658346849954    0.4558221640638099    0.2336917587878817 Nb
   0.7364364229202897    0.4705280464167509    0.2336917587878817 Nb
   0.9129070111555838    0.4852339287696920    0.2336917587878817 Nb
   0.1482011288026426    0.3381751052402805    0.2336917587878817 Nb
   0.3246717170379368    0.3528809875932217    0.2336917587878817 Nb
   0.5011423052732308    0.3675868699461629    0.2336917587878817 Nb
   0.6776128935085248    0.3822927522991041    0.2336917587878817 Nb
   0.8540834817438190    0.3969986346520452    0.2336917587878817 Nb
   0.0893775993908779    0.2499398111226335    0.2336917587878817 Nb
   0.2658481876261721    0.2646456934755747    0.2336917587878817 Nb
   0.4423187758614662    0.2793515758285158    0.2336917587878817 Nb
   0.6187893640967606    0.2940574581814570    0.2336917587878817 Nb
   0.7952599523320544    0.3087633405343981    0.2336917587878817 Nb
   0.9717305405673485    0.3234692228873394    0.2336917587878817 Nb
   0.0305540699791132    0.1617045170049864    0.2336917587878817 Nb
   0.2070246582144073    0.1764103993579276    0.2336917587878817 Nb
   0.3834952464497013    0.1911162817108687    0.2336917587878817 Nb
   0.5599658346849955    0.2058221640638100    0.2336917587878817 Nb
   0.7364364229202897    0.2205280464167511    0.2336917587878817 Nb
   0.9129070111555840    0.2352339287696923    0.2336917587878817 Nb
   0.1482011288026427    0.0881751052402806    0.2336917587878817 Nb
   0.3246717170379367    0.1028809875932218    0.2336917587878817 Nb
   0.5011423052732309    0.1175868699461629    0.2336917587878817 Nb
   0.6776128935085249    0.1322927522991041    0.2336917587878817 Nb
   0.8540834817438190    0.1469986346520452    0.2336917587878817 Nb
   0.0893775993908779    0.9999398111226335    0.2336917587878817 Nb
   0.2658481876261719    0.0146456934755747    0.2336917587878817 Nb
   0.4423187758614662    0.0293515758285159    0.2336917587878817 Nb
   0.6187893640967604    0.0440574581814570    0.2336917587878817 Nb
   0.7952599523320544    0.0587633405343982    0.2336917587878817 Nb
   0.9717305405673485    0.0734692228873393    0.2336917587878817 Nb
   0.0305540699791133    0.9117045170049866    0.2336917587878817 Nb
   0.2070246582144073    0.9264103993579273    0.2336917587878817 Nb
   0.3834952464497016    0.9411162817108687    0.2336917587878817 Nb
   0.5599658346849956    0.9558221640638099    0.2336917587878817 Nb
   0.7364364229202897    0.9705280464167512    0.2336917587878817 Nb
   0.9129070111555839    0.9852339287696924    0.2336917587878817 Nb
   0.2385082758104431    0.8128172723342341    0.7671208852038272 Bi
   0.4512742332572518    0.8340938680789149    0.7671208852038272 Bi
   0.6640401907040603    0.8553704638235958    0.7671208852038272 Bi
   0.8768061481508689    0.8766470595682772    0.7671208852038272 Bi
   0.1746784885764007    0.7064342936108300    0.7671208852038272 Bi
   0.3874444460232092    0.7277108893555109    0.7671208852038272 Bi
   0.6002104034700178    0.7489874851001915    0.7671208852038272 Bi
   0.8129763609168263    0.7702640808448725    0.7671208852038272 Bi
   0.0257423183636348    0.7915406765895533    0.7671208852038272 Bi
   0.1108487013423582    0.6000513148874258    0.7671208852038272 Bi
   0.3236146587891667    0.6213279106321065    0.7671208852038272 Bi
   0.5363806162359754    0.6426045063767876    0.7671208852038272 Bi
   0.7491465736827837    0.6638811021214682    0.7671208852038272 Bi
   0.9619125311295922    0.6851576978661489    0.7671208852038272 Bi
   0.2597848715551241    0.5149449319087023    0.7671208852038272 Bi
   0.4725508290019327    0.5362215276533832    0.7671208852038272 Bi
   0.6853167864487413    0.5574981233980641    0.7671208852038272 Bi
   0.8980827438955500    0.5787747191427450    0.7671208852038272 Bi
   0.1959550843210816    0.4085619531852983    0.7671208852038272 Bi
   0.4087210417678902    0.4298385489299789    0.7671208852038272 Bi
   0.6214869992146986    0.4511151446746599    0.7671208852038272 Bi
   0.8342529566615070    0.4723917404193407    0.7671208852038272 Bi
   0.0470189141083158    0.4936683361640216    0.7671208852038272 Bi
   0.1321252970870390    0.3021789744618940    0.7671208852038272 Bi
   0.3448912545338476    0.3234555702065746    0.7671208852038272 Bi
   0.5576572119806561    0.3447321659512556    0.7671208852038272 Bi
   0.7704231694274645    0.3660087616959364    0.7671208852038272 Bi
   0.9831891268742733    0.3872853574406174    0.7671208852038272 Bi
   0.2810614672998050    0.2170725914831705    0.7671208852038272 Bi
   0.4938274247466135    0.2383491872278514    0.7671208852038272 Bi
   0.7065933821934219    0.2596257829725321    0.7671208852038272 Bi
   0.9193593396402305    0.2809023787172130    0.7671208852038272 Bi
   0.2172316800657624    0.1106896127597662    0.7671208852038272 Bi
   0.4299976375125710    0.1319662085044470    0.7671208852038272 Bi
   0.6427635949593794    0.1532428042491279    0.7671208852038272 Bi
   0.8555295524061881    0.1745193999938088    0.7671208852038272 Bi
   0.0682955098529966    0.1957959957384896    0.7671208852038272 Bi
   0.1534018928317198    0.0043066340363620    0.7671208852038272 Bi
   0.3661678502785283    0.0255832297810429    0.7671208852038272 Bi
   0.5789338077253370    0.0468598255257237    0.7671208852038272 Bi
   0.7916997651721455    0.0681364212704045    0.7671208852038272 Bi
   0.0044657226189540    0.0894130170150853    0.7671208852038272 Bi
   0.0895721055976773    0.8979236553129575    0.7671208852038272 Bi
   0.3023380630444858    0.9192002510576386    0.7671208852038272 Bi
   0.5151040204912944    0.9404768468023194    0.7671208852038272 Bi
   0.7278699779381029    0.9617534425470002    0.7671208852038272 Bi
   0.9406359353849113    0.9830300382916811    0.7671208852038272 Bi
   0.2102223241088741    0.8776096874900829    0.6873709670584139 Bi
   0.4229882815556827    0.8988862832347639    0.6873709670584139 Bi
   0.6357542390024913    0.9201628789794446    0.6873709670584139 Bi
   0.8485201964492999    0.9414394747241256    0.6873709670584139 Bi
   0.1463925368748316    0.7712267087666786    0.6873709670584139 Bi
   0.3591584943216402    0.7925033045113595    0.6873709670584139 Bi
   0.5719244517684487    0.8137799002560405    0.6873709670584139 Bi
   0.7846904092152571    0.8350564960007213    0.6873709670584139 Bi
   0.9974563666620657    0.8563330917454021    0.6873709670584139 Bi
   0.0825627496407891    0.6648437300432744    0.6873709670584138 Bi
   0.2953287070875977    0.6861203257879551    0.6873709670584139 Bi
   0.5080946645344062    0.7073969215326362    0.6873709670584139 Bi
   0.7208606219812149    0.7286735172773171    0.6873709670584139 Bi
   0.9336265794280232    0.7499501130219978    0.6873709670584138 Bi
   0.2314989198535551    0.5797373470645510    0.6873709670584138 Bi
   0.4442648773003636    0.6010139428092318    0.6873709670584139 Bi
   0.6570308347471722    0.6222905385539128    0.6873709670584139 Bi
   0.8697967921939805    0.6435671342985938    0.6873709670584139 Bi
   0.1676691326195125    0.4733543683411467    0.6873709670584138 Bi
   0.3804350900663209    0.4946309640858276    0.6873709670584138 Bi
   0.5932010475131297    0.5159075598305085    0.6873709670584139 Bi
   0.8059670049599380    0.5371841555751894    0.6873709670584139 Bi
   0.0187329624067465    0.5584607513198701    0.6873709670584138 Bi
   0.1038393453854700    0.3669713896177426    0.6873709670584138 Bi
   0.3166053028322785    0.3882479853624233    0.6873709670584138 Bi
   0.5293712602790869    0.4095245811071042    0.6873709670584138 Bi
   0.7421372177258955    0.4308011768517850    0.6873709670584139 Bi
   0.9549031751727040    0.4520777725964659    0.6873709670584138 Bi
   0.2527755155982360    0.2818650066390191    0.6873709670584138 Bi
   0.4655414730450445    0.3031416023837000    0.6873709670584138 Bi
   0.6783074304918529    0.3244181981283807    0.6873709670584138 Bi
   0.8910733879386614    0.3456947938730616    0.6873709670584139 Bi
   0.1889457283641935    0.1754820279156149    0.6873709670584138 Bi
   0.4017116858110020    0.1967586236602958    0.6873709670584138 Bi
   0.6144776432578105    0.2180352194049766    0.6873709670584138 Bi
   0.8272436007046189    0.2393118151496574    0.6873709670584138 Bi
   0.0400095581514274    0.2605884108943382    0.6873709670584138 Bi
   0.1251159411301509    0.0690990491922106    0.6873709670584138 Bi
   0.3378818985769594    0.0903756449368915    0.6873709670584138 Bi
   0.5506478560237680    0.1116522406815723    0.6873709670584138 Bi
   0.7634138134705766    0.1329288364262532    0.6873709670584138 Bi
   0.9761797709173848    0.1542054321709340    0.6873709670584138 Bi
   0.0612861538961083    0.9627160704688065    0.6873709670584139 Bi
   0.2740521113429168    0.9839926662134872    0.6873709670584138 Bi
   0.4868180687897252    0.0052692619581680    0.6873709670584138 Bi
   0.6995840262365338    0.0265458577028489    0.6873709670584138 Bi
   0.9123499836833426    0.0478224534475298    0.6873709670584138 Bi
   0.2072118353158505    0.8786423942521038    0.5665155440360312 Bi
   0.4199777927626591    0.8999189899967847    0.5665155440360312 Bi
   0.6327437502094676    0.9211955857414654    0.5665155440360312 Bi
   0.8455097076562762    0.9424721814861463    0.5665155440360312 Bi
   0.1433820480818079    0.7722594155286996    0.5665155440360312 Bi
   0.3561480055286166    0.7935360112733802    0.5665155440360312 Bi
   0.5689139629754251    0.8148126070180611    0.5665155440360312 Bi
   0.7816799204222336    0.8360892027627421    0.5665155440360312 Bi
   0.9944458778690419    0.8573657985074228    0.5665155440360312 Bi
   0.0795522608477654    0.6658764368052954    0.5665155440360312 Bi
   0.2923182182945740    0.6871530325499761    0.5665155440360312 Bi
   0.5050841757413825    0.7084296282946572    0.5665155440360312 Bi
   0.7178501331881910    0.7297062240393377    0.5665155440360312 Bi
   0.9306160906349994    0.7509828197840187    0.5665155440360312 Bi
   0.2284884310605314    0.5807700538265720    0.5665155440360312 Bi
   0.4412543885073400    0.6020466495712528    0.5665155440360312 Bi
   0.6540203459541486    0.6233232453159339    0.5665155440360312 Bi
   0.8667863034009570    0.6445998410606145    0.5665155440360312 Bi
   0.1646586438264888    0.4743870751031676    0.5665155440360312 Bi
   0.3774246012732975    0.4956636708478485    0.5665155440360312 Bi
   0.5901905587201058    0.5169402665925293    0.5665155440360312 Bi
   0.8029565161669145    0.5382168623372103    0.5665155440360312 Bi
   0.0157224736137227    0.5594934580818911    0.5665155440360312 Bi
   0.1008288565924463    0.3680040963797634    0.5665155440360312 Bi
   0.3135948140392549    0.3892806921244443    0.5665155440360312 Bi
   0.5263607714860634    0.4105572878691250    0.5665155440360312 Bi
   0.7391267289328719    0.4318338836138059    0.5665155440360312 Bi
   0.9518926863796803    0.4531104793584868    0.5665155440360312 Bi
   0.2497650268052123    0.2828977134010400    0.5665155440360312 Bi
   0.4625309842520207    0.3041743091457209    0.5665155440360312 Bi
   0.6752969416988293    0.3254509048904017    0.5665155440360312 Bi
   0.8880628991456377    0.3467275006350826    0.5665155440360312 Bi
   0.1859352395711698    0.1765147346776357    0.5665155440360312 Bi
   0.3987011970179784    0.1977913304223166    0.5665155440360312 Bi
   0.6114671544647869    0.2190679261669976    0.5665155440360312 Bi
   0.8242331119115953    0.2403445219116783    0.5665155440360312 Bi
   0.0369990693584038    0.2616211176563591    0.5665155440360312 Bi
   0.1221054523371272    0.0701317559542315    0.5665155440360311 Bi
   0.3348714097839356    0.0914083516989124    0.5665155440360312 Bi
   0.5476373672307443    0.1126849474435932    0.5665155440360312 Bi
   0.7604033246775528    0.1339615431882740    0.5665155440360312 Bi
   0.9731692821243613    0.1552381389329550    0.5665155440360311 Bi
   0.0582756651030846    0.9637487772308272    0.5665155440360312 Bi
   0.2710416225498931    0.9850253729755081    0.5665155440360311 Bi
   0.4838075799967017    0.0063019687201889    0.5665155440360312 Bi
   0.6965735374435102    0.0275785644648698    0.5665155440360312 Bi
   0.9093394948903190    0.0488551602095506    0.5665155440360312 Bi
   0.1157767168659413    0.8365024065110950    0.4870641414761426 Bi
   0.3285426743127498    0.8577790022557760    0.4870641414761426 Bi
   0.5413086317595583    0.8790555980004569    0.4870641414761426 Bi
   0.7540745892063671    0.9003321937451377    0.4870641414761426 Bi
   0.0519469296318988    0.7301194277876909    0.4870641414761426 Bi
   0.2647128870787073    0.7513960235323717    0.4870641414761426 Bi
   0.4774788445255159    0.7726726192770526    0.4870641414761426 Bi
   0.6902448019723244    0.7939492150217333    0.4870641414761426 Bi
   0.9030107594191329    0.8152258107664143    0.4870641414761426 Bi
   0.9881171423978562    0.6237364490642866    0.4870641414761426 Bi
   0.2008830998446648    0.6450130448089673    0.4870641414761426 Bi
   0.4136490572914734    0.6662896405536483    0.4870641414761426 Bi
   0.6264150147382819    0.6875662362983292    0.4870641414761426 Bi
   0.8391809721850904    0.7088428320430099    0.4870641414761426 Bi
   0.1370533126106221    0.5386300660855631    0.4870641414761426 Bi
   0.3498192700574307    0.5599066618302442    0.4870641414761426 Bi
   0.5625852275042393    0.5811832575749248    0.4870641414761426 Bi
   0.7753511849510478    0.6024598533196059    0.4870641414761426 Bi
   0.0732235253765797    0.4322470873621589    0.4870641414761426 Bi
   0.2859894828233881    0.4535236831068397    0.4870641414761426 Bi
   0.4987554402701966    0.4748002788515208    0.4870641414761426 Bi
   0.7115213977170052    0.4960768745962016    0.4870641414761426 Bi
   0.9242873551638140    0.5173534703408824    0.4870641414761426 Bi
   0.0093937381425370    0.3258641086387546    0.4870641414761426 Bi
   0.2221596955893457    0.3471407043834355    0.4870641414761426 Bi
   0.4349256530361542    0.3684173001281164    0.4870641414761426 Bi
   0.6476916104829629    0.3896938958727971    0.4870641414761426 Bi
   0.8604575679297712    0.4109704916174782    0.4870641414761426 Bi
   0.1583299083553030    0.2407577256600313    0.4870641414761426 Bi
   0.3710958658021115    0.2620343214047121    0.4870641414761426 Bi
   0.5838618232489201    0.2833109171493930    0.4870641414761426 Bi
   0.7966277806957285    0.3045875128940738    0.4870641414761426 Bi
   0.0945001211212604    0.1343747469366270    0.4870641414761426 Bi
   0.3072660785680689    0.1556513426813078    0.4870641414761426 Bi
   0.5200320360148775    0.1769279384259887    0.4870641414761426 Bi
   0.7327979934616858    0.1982045341706696    0.4870641414761426 Bi
   0.9455639509084944    0.2194811299153504    0.4870641414761426 Bi
   0.0306703338872179    0.0279917682132227    0.4870641414761426 Bi
   0.2434362913340264    0.0492683639579036    0.4870641414761426 Bi
   0.4562022487808350    0.0705449597025845    0.4870641414761426 Bi
   0.6689682062276435    0.0918215554472653    0.4870641414761426 Bi
   0.8817341636744519    0.1130981511919461    0.4870641414761426 Bi
   0.9668405466531753    0.9216087894898185    0.4870641414761426 Bi
   0.1796065040999838    0.9428853852344993    0.4870641414761426 Bi
   0.3923724615467925    0.9641619809791802    0.4870641414761426 Bi
   0.6051384189936010    0.9854385767238610    0.4870641414761426 Bi
   0.8179043764404094    0.0067151724685419    0.4870641414761426 Bi
   0.0501429663915979    0.8577715739376935    0.2000427878291580 Se
   0.2266135546268919    0.8724774562906346    0.2000427878291580 Se
   0.4030841428621859    0.8871833386435759    0.2000427878291580 Se
   0.5795547310974800    0.9018892209965169    0.2000427878291580 Se
   0.7560253193327744    0.9165951033494580    0.2000427878291580 Se
   0.9913194369798330    0.7695362798200466    0.2000427878291580 Se
   0.1677900252151273    0.7842421621729878    0.2000427878291580 Se
   0.3442606134504213    0.7989480445259288    0.2000427878291580 Se
   0.5207312016857154    0.8136539268788699    0.2000427878291580 Se
   0.6972017899210095    0.8283598092318111    0.2000427878291580 Se
   0.8736723781563037    0.8430656915847521    0.2000427878291580 Se
   0.9324959075680683    0.6813009857023995    0.2000427878291580 Se
   0.1089664958033625    0.6960068680553406    0.2000427878291580 Se
   0.2854370840386566    0.7107127504082820    0.2000427878291580 Se
   0.4619076722739506    0.7254186327612230    0.2000427878291580 Se
   0.6383782605092450    0.7401245151141642    0.2000427878291580 Se
   0.8148488487445389    0.7548303974671053    0.2000427878291580 Se
   0.0501429663915977    0.6077715739376934    0.2000427878291580 Se
   0.2266135546268920    0.6224774562906349    0.2000427878291580 Se
   0.4030841428621861    0.6371833386435759    0.2000427878291580 Se
   0.5795547310974801    0.6518892209965170    0.2000427878291580 Se
   0.7560253193327743    0.6665951033494584    0.2000427878291580 Se
   0.9913194369798330    0.5195362798200464    0.2000427878291580 Se
   0.1677900252151272    0.5342421621729876    0.2000427878291580 Se
   0.3442606134504212    0.5489480445259287    0.2000427878291580 Se
   0.5207312016857153    0.5636539268788698    0.2000427878291580 Se
   0.6972017899210095    0.5783598092318112    0.2000427878291580 Se
   0.8736723781563037    0.5930656915847526    0.2000427878291580 Se
   0.9324959075680684    0.4313009857023995    0.2000427878291580 Se
   0.1089664958033625    0.4460068680553407    0.2000427878291580 Se
   0.2854370840386566    0.4607127504082818    0.2000427878291580 Se
   0.4619076722739507    0.4754186327612228    0.2000427878291580 Se
   0.6383782605092447    0.4901245151141640    0.2000427878291580 Se
   0.8148488487445389    0.5048303974671055    0.2000427878291580 Se
   0.0501429663915978    0.3577715739376937    0.2000427878291580 Se
   0.2266135546268920    0.3724774562906349    0.2000427878291580 Se
   0.4030841428621861    0.3871833386435761    0.2000427878291580 Se
   0.5795547310974802    0.4018892209965172    0.2000427878291580 Se
   0.7560253193327742    0.4165951033494584    0.2000427878291580 Se
   0.9913194369798330    0.2695362798200466    0.2000427878291580 Se
   0.1677900252151273    0.2842421621729877    0.2000427878291580 Se
   0.3442606134504213    0.2989480445259289    0.2000427878291580 Se
   0.5207312016857156    0.3136539268788702    0.2000427878291580 Se
   0.6972017899210096    0.3283598092318114    0.2000427878291580 Se
   0.8736723781563036    0.3430656915847525    0.2000427878291580 Se
   0.9324959075680683    0.1813009857023995    0.2000427878291580 Se
   0.1089664958033624    0.1960068680553407    0.2000427878291580 Se
   0.2854370840386566    0.2107127504082819    0.2000427878291580 Se
   0.4619076722739507    0.2254186327612230    0.2000427878291580 Se
   0.6383782605092446    0.2401245151141642    0.2000427878291580 Se
   0.8148488487445389    0.2548303974671055    0.2000427878291580 Se
   0.0501429663915978    0.1077715739376937    0.2000427878291580 Se
   0.2266135546268919    0.1224774562906349    0.2000427878291580 Se
   0.4030841428621860    0.1371833386435760    0.2000427878291580 Se
   0.5795547310974801    0.1518892209965172    0.2000427878291580 Se
   0.7560253193327742    0.1665951033494583    0.2000427878291580 Se
   0.9913194369798330    0.0195362798200467    0.2000427878291580 Se
   0.1677900252151272    0.0342421621729878    0.2000427878291580 Se
   0.3442606134504213    0.0489480445259290    0.2000427878291580 Se
   0.5207312016857154    0.0636539268788701    0.2000427878291580 Se
   0.6972017899210095    0.0783598092318113    0.2000427878291580 Se
   0.8736723781563036    0.0930656915847525    0.2000427878291580 Se
   0.9324959075680684    0.9313009857023995    0.2000427878291580 Se
   0.1089664958033625    0.9460068680553407    0.2000427878291580 Se
   0.2854370840386566    0.9607127504082820    0.2000427878291580 Se
   0.4619076722739506    0.9754186327612231    0.2000427878291580 Se
   0.6383782605092446    0.9901245151141643    0.2000427878291580 Se
   0.8148488487445389    0.0048303974671055    0.2000427878291580 Se
   0.1284351400191455    0.8923513785427938    0.3229896502366214 Se
   0.3049057282544395    0.9070572608957349    0.3229896502366214 Se
   0.4813763164897336    0.9217631432486761    0.3229896502366214 Se
   0.6578469047250276    0.9364690256016172    0.3229896502366214 Se
   0.8343174929603219    0.9511749079545578    0.3229896502366214 Se
   0.0696116106073806    0.8041160844251469    0.3229896502366214 Se
   0.2460821988426748    0.8188219667780879    0.3229896502366214 Se
   0.4225527870779689    0.8335278491310293    0.3229896502366214 Se
   0.5990233753132629    0.8482337314839704    0.3229896502366214 Se
   0.7754939635485570    0.8629396138369114    0.3229896502366214 Se
   0.9519645517838513    0.8776454961898525    0.3229896502366214 Se
   0.0107880811956159    0.7158807903074995    0.3229896502366214 Se
   0.1872586694309100    0.7305866726604406    0.3229896502366214 Se
   0.3637292576662041    0.7452925550133821    0.3229896502366214 Se
   0.5401998459014984    0.7599984373663233    0.3229896502366214 Se
   0.7166704341367923    0.7747043197192643    0.3229896502366214 Se
   0.8931410223720864    0.7894102020722056    0.3229896502366214 Se
   0.1284351400191453    0.6423513785427936    0.3229896502366214 Se
   0.3049057282544396    0.6570572608957348    0.3229896502366214 Se
   0.4813763164897336    0.6717631432486760    0.3229896502366214 Se
   0.6578469047250277    0.6864690256016173    0.3229896502366214 Se
   0.8343174929603220    0.7011749079545584    0.3229896502366214 Se
   0.0696116106073807    0.5541160844251468    0.3229896502366214 Se
   0.2460821988426748    0.5688219667780877    0.3229896502366214 Se
   0.4225527870779689    0.5835278491310290    0.3229896502366214 Se
   0.5990233753132631    0.5982337314839700    0.3229896502366214 Se
   0.7754939635485573    0.6129396138369114    0.3229896502366214 Se
   0.9519645517838512    0.6276454961898525    0.3229896502366214 Se
   0.0107880811956160    0.4658807903074997    0.3229896502366214 Se
   0.1872586694309100    0.4805866726604409    0.3229896502366214 Se
   0.3637292576662042    0.4952925550133820    0.3229896502366214 Se
   0.5401998459014983    0.5099984373663231    0.3229896502366214 Se
   0.7166704341367923    0.5247043197192645    0.3229896502366214 Se
   0.8931410223720866    0.5394102020722055    0.3229896502366214 Se
   0.1284351400191454    0.3923513785427939    0.3229896502366214 Se
   0.3049057282544395    0.4070572608957351    0.3229896502366214 Se
   0.4813763164897336    0.4217631432486763    0.3229896502366214 Se
   0.6578469047250277    0.4364690256016173    0.3229896502366214 Se
   0.8343174929603220    0.4511749079545584    0.3229896502366214 Se