{'film_sl_vectors': array([[ -6.25624176,  18.06021431,   0.        ],
       [-35.45203663, -10.83612859,   0.        ]]), 'substrate_sl_vectors': array([[ -6.92714156,  17.99724171,   0.        ],
       [-34.63570782, -11.99816114,   0.        ]]), 'film_vectors': array([[ 4.17082784,  0.        ,  0.        ],
       [-2.08541392,  3.61204286,  0.        ]]), 'substrate_vectors': array([[ 3.46357078,  0.        ,  0.        ],
       [-1.73178539,  2.99954028,  0.        ]]), 'film_transformation': array([[ 1.,  5.],
       [ 0., 47.]]), 'substrate_transformation': array([[ 1.,  6.],
       [ 0., 68.]]), 'strain': Strain([[-0.01003031 -0.00477632  0.        ]
 [-0.00477632  0.00797218  0.        ]
 [ 0.          0.          0.        ]]), 'von_mises_strain': 0.011786357448110163, 'termination': ('default', 'default'), 'film_thickness': 1, 'substrate_thickness': 1, 'signed_angle': 1.9451190864585857, 'decomposition_angle': -2.04831398281069}