Nb148 Bi204 Se602
1.0
  12.4880820497693499    0.0000000000000000    0.0000000000000008
   0.9606216940361978   61.5622866320808129    0.0000000000000038
   0.0000000000000000    0.0000000000000000   49.9893053307188922
Nb Bi Se
148 204 602
direct
   0.0491637589737673    0.0053319177353211    0.3566429020965913 Nb
   0.2383529481629565    0.0458724582758617    0.3566429020965913 Nb
   0.5086232184332267    0.0323589447623482    0.3566429020965913 Nb
   0.7788934887034971    0.0188454312488346    0.3566429020965913 Nb
   0.1572718670818753    0.0999265123299157    0.3566429020965913 Nb
   0.4275421373521455    0.0864129988164022    0.3566429020965913 Nb
   0.6978124076224156    0.0728994853028887    0.3566429020965913 Nb
   0.9680826778926860    0.0593859717893752    0.3566429020965913 Nb
   0.0761907860007943    0.1539805663839698    0.3566429020965913 Nb
   0.3464610562710643    0.1404670528704562    0.3566429020965913 Nb
   0.6167313265413348    0.1269535393569428    0.3566429020965913 Nb
   0.8870015968116051    0.1134400258434292    0.3566429020965913 Nb
   0.2653799751899834    0.1945211069245103    0.3566429020965913 Nb
   0.5356502454602534    0.1810075934109968    0.3566429020965913 Nb
   0.8059205157305239    0.1674940798974833    0.3566429020965913 Nb
   0.1842988941089024    0.2485751609785644    0.3566429020965913 Nb
   0.4545691643791725    0.2350616474650509    0.3566429020965913 Nb
   0.7248394346494428    0.2215481339515373    0.3566429020965913 Nb
   0.9951097049197130    0.2080346204380238    0.3566429020965913 Nb
   0.1032178130278213    0.3026292150326185    0.3566429020965913 Nb
   0.3734880832980914    0.2891157015191051    0.3566429020965913 Nb
   0.6437583535683616    0.2756021880055914    0.3566429020965913 Nb
   0.9140286238386318    0.2620886744920780    0.3566429020965913 Nb
   0.2924070022170104    0.3431697555731590    0.3566429020965913 Nb
   0.5626772724872805    0.3296562420596455    0.3566429020965913 Nb
   0.8329475427575508    0.3161427285461321    0.3566429020965913 Nb
   0.2113259211359293    0.3972238096272131    0.3566429020965913 Nb
   0.4815961914061996    0.3837102961136996    0.3566429020965913 Nb
   0.7518664616764696    0.3701967826001861    0.3566429020965913 Nb
   0.0221367319467399    0.3566832690866725    0.3566429020965913 Nb
   0.1302448400548482    0.4512778636812672    0.3566429020965913 Nb
   0.4005151103251184    0.4377643501677536    0.3566429020965913 Nb
   0.6707853805953888    0.4242508366542401    0.3566429020965913 Nb
   0.9410556508656589    0.4107373231407266    0.3566429020965913 Nb
   0.0491637589737672    0.5053319177353210    0.3566429020965913 Nb
   0.3194340292440375    0.4918184042218077    0.3566429020965913 Nb
   0.5897042995143077    0.4783048907082942    0.3566429020965913 Nb
   0.8599745697845779    0.4647913771947806    0.3566429020965913 Nb
   0.2383529481629564    0.5458724582758619    0.3566429020965913 Nb
   0.5086232184332268    0.5323589447623482    0.3566429020965913 Nb
   0.7788934887034970    0.5188454312488348    0.3566429020965913 Nb
   0.1572718670818752    0.5999265123299159    0.3566429020965913 Nb
   0.4275421373521455    0.5864129988164023    0.3566429020965913 Nb
   0.6978124076224158    0.5728994853028888    0.3566429020965913 Nb
   0.9680826778926860    0.5593859717893750    0.3566429020965913 Nb
   0.0761907860007941    0.6539805663839698    0.3566429020965913 Nb
   0.3464610562710644    0.6404670528704565    0.3566429020965913 Nb
   0.6167313265413344    0.6269535393569429    0.3566429020965912 Nb
   0.8870015968116046    0.6134400258434292    0.3566429020965912 Nb
   0.2653799751899834    0.6945211069245104    0.3566429020965912 Nb
   0.5356502454602535    0.6810075934109970    0.3566429020965912 Nb
   0.8059205157305237    0.6674940798974833    0.3566429020965912 Nb
   0.1842988941089022    0.7485751609785646    0.3566429020965912 Nb
   0.4545691643791724    0.7350616474650510    0.3566429020965912 Nb
   0.7248394346494427    0.7215481339515373    0.3566429020965913 Nb
   0.9951097049197132    0.7080346204380238    0.3566429020965913 Nb
   0.1032178130278213    0.8026292150326185    0.3566429020965912 Nb
   0.3734880832980911    0.7891157015191052    0.3566429020965913 Nb
   0.6437583535683618    0.7756021880055914    0.3566429020965913 Nb
   0.9140286238386318    0.7620886744920780    0.3566429020965912 Nb
   0.2924070022170102    0.8431697555731591    0.3566429020965913 Nb
   0.5626772724872806    0.8296562420596454    0.3566429020965913 Nb
   0.8329475427575503    0.8161427285461321    0.3566429020965913 Nb
   0.2113259211359290    0.8972238096272130    0.3566429020965913 Nb
   0.4815961914061991    0.8837102961136997    0.3566429020965913 Nb
   0.7518664616764695    0.8701967826001861    0.3566429020965913 Nb
   0.0221367319467396    0.8566832690866727    0.3566429020965913 Nb
   0.1302448400548482    0.9512778636812673    0.3566429020965913 Nb
   0.4005151103251183    0.9377643501677537    0.3566429020965913 Nb
   0.6707853805953882    0.9242508366542400    0.3566429020965913 Nb
   0.9410556508656586    0.9107373231407269    0.3566429020965913 Nb
   0.3194340292440370    0.9918184042218078    0.3566429020965913 Nb
   0.5897042995143074    0.9783048907082941    0.3566429020965913 Nb
   0.8599745697845778    0.9647913771947808    0.3566429020965913 Nb
   0.0494162657471782    0.0054819199639560    0.2336917587878816 Nb
   0.2386054549363673    0.0460224605044966    0.2336917587878816 Nb
   0.5088757252066377    0.0325089469909831    0.2336917587878816 Nb
   0.7791459954769080    0.0189954334774695    0.2336917587878816 Nb
   0.1575243738552862    0.1000765145585506    0.2336917587878816 Nb
   0.4277946441255563    0.0865630010450371    0.2336917587878816 Nb
   0.6980649143958267    0.0730494875315236    0.2336917587878816 Nb
   0.9683351846660969    0.0595359740180101    0.2336917587878816 Nb
   0.0764432927742051    0.1541305686126047    0.2336917587878816 Nb
   0.3467135630444753    0.1406170550990911    0.2336917587878816 Nb
   0.6169838333147457    0.1271035415855777    0.2336917587878816 Nb
   0.8872541035850159    0.1135900280720641    0.2336917587878816 Nb
   0.2656324819633943    0.1946711091531452    0.2336917587878816 Nb
   0.5359027522336643    0.1811575956396317    0.2336917587878816 Nb
   0.8061730225039345    0.1676440821261182    0.2336917587878816 Nb
   0.1845514008823133    0.2487251632071993    0.2336917587878816 Nb
   0.4548216711525835    0.2352116496936858    0.2336917587878816 Nb
   0.7250919414228535    0.2216981361801722    0.2336917587878816 Nb
   0.9953622116931237    0.2081846226666587    0.2336917587878816 Nb
   0.1034703198012322    0.3027792172612534    0.2336917587878816 Nb
   0.3737405900715025    0.2892657037477399    0.2336917587878816 Nb
   0.6440108603417727    0.2757521902342264    0.2336917587878816 Nb
   0.9142811306120429    0.2622386767207129    0.2336917587878816 Nb
   0.2926595089904213    0.3433197578017940    0.2336917587878816 Nb
   0.5629297792606915    0.3298062442882804    0.2336917587878816 Nb
   0.8332000495309617    0.3162927307747669    0.2336917587878816 Nb
   0.2115784279093403    0.3973738118558480    0.2336917587878816 Nb
   0.4818486981796105    0.3838602983423345    0.2336917587878816 Nb
   0.7521189684498808    0.3703467848288210    0.2336917587878816 Nb
   0.0223892387201509    0.3568332713153073    0.2336917587878816 Nb
   0.1304973468282591    0.4514278659099021    0.2336917587878816 Nb
   0.4007676170985293    0.4379143523963884    0.2336917587878816 Nb
   0.6710378873687994    0.4244008388828751    0.2336917587878816 Nb
   0.9413081576390697    0.4108873253693614    0.2336917587878816 Nb
   0.0494162657471781    0.5054819199639561    0.2336917587878816 Nb
   0.3196865360174483    0.4919684064504426    0.2336917587878816 Nb
   0.5899568062877184    0.4784548929369291    0.2336917587878816 Nb
   0.8602270765579887    0.4649413794234155    0.2336917587878816 Nb
   0.2386054549363672    0.5460224605044968    0.2336917587878816 Nb
   0.5088757252066375    0.5325089469909832    0.2336917587878816 Nb
   0.7791459954769077    0.5189954334774697    0.2336917587878816 Nb
   0.1575243738552862    0.6000765145585507    0.2336917587878816 Nb
   0.4277946441255562    0.5865630010450371    0.2336917587878816 Nb
   0.6980649143958267    0.5730494875315237    0.2336917587878816 Nb
   0.9683351846660969    0.5595359740180100    0.2336917587878816 Nb
   0.0764432927742051    0.6541305686126047    0.2336917587878816 Nb
   0.3467135630444751    0.6406170550990913    0.2336917587878816 Nb
   0.6169838333147454    0.6271035415855777    0.2336917587878816 Nb
   0.8872541035850157    0.6135900280720640    0.2336917587878816 Nb
   0.2656324819633945    0.6946711091531452    0.2336917587878816 Nb
   0.5359027522336648    0.6811575956396316    0.2336917587878816 Nb
   0.8061730225039346    0.6676440821261181    0.2336917587878816 Nb
   0.1845514008823133    0.7487251632071994    0.2336917587878816 Nb
   0.4548216711525837    0.7352116496936858    0.2336917587878816 Nb
   0.7250919414228535    0.7216981361801721    0.2336917587878816 Nb
   0.9953622116931240    0.7081846226666587    0.2336917587878816 Nb
   0.1034703198012321    0.8027792172612533    0.2336917587878816 Nb
   0.3737405900715024    0.7892657037477397    0.2336917587878816 Nb
   0.6440108603417728    0.7757521902342263    0.2336917587878816 Nb
   0.9142811306120429    0.7622386767207129    0.2336917587878816 Nb
   0.2926595089904213    0.8433197578017939    0.2336917587878816 Nb
   0.5629297792606914    0.8298062442882803    0.2336917587878816 Nb
   0.8332000495309615    0.8162927307747667    0.2336917587878816 Nb
   0.2115784279093401    0.8973738118558480    0.2336917587878816 Nb
   0.4818486981796103    0.8838602983423343    0.2336917587878816 Nb
   0.7521189684498805    0.8703467848288209    0.2336917587878816 Nb
   0.0223892387201507    0.8568332713153075    0.2336917587878816 Nb
   0.1304973468282592    0.9514278659099021    0.2336917587878816 Nb
   0.4007676170985293    0.9379143523963885    0.2336917587878816 Nb
   0.6710378873687998    0.9244008388828751    0.2336917587878816 Nb
   0.9413081576390698    0.9108873253693616    0.2336917587878816 Nb
   0.3196865360174482    0.9919684064504425    0.2336917587878816 Nb
   0.5899568062877184    0.9784548929369290    0.2336917587878816 Nb
   0.8602270765579888    0.9649413794234156    0.2336917587878816 Nb
   0.2081899026029030    0.8704279972326106    0.7671208852038269 Bi
   0.3650526477009416    0.9292515266443754    0.7671208852038270 Bi
   0.2277977457401578    0.7527809384090811    0.7671208852038269 Bi
   0.3846604908381970    0.8116044678208458    0.7671208852038269 Bi
   0.5415232359362366    0.8704279972326107    0.7671208852038269 Bi
   0.6983859810342753    0.9292515266443753    0.7671208852038270 Bi
   0.2474055888774118    0.6351338795855519    0.7671208852038269 Bi
   0.4042683339754513    0.6939574089973166    0.7671208852038269 Bi
   0.5611310790734906    0.7527809384090811    0.7671208852038269 Bi
   0.7179938241715303    0.8116044678208458    0.7671208852038269 Bi
   0.8748565692695692    0.8704279972326106    0.7671208852038270 Bi
   0.0317193143676080    0.9292515266443755    0.7671208852038269 Bi
   0.2670134320146674    0.5174868207620223    0.7671208852038269 Bi
   0.4238761771127065    0.5763103501737870    0.7671208852038269 Bi
   0.5807389222107454    0.6351338795855517    0.7671208852038269 Bi
   0.7376016673087847    0.6939574089973164    0.7671208852038269 Bi
   0.8944644124068244    0.7527809384090811    0.7671208852038269 Bi
   0.0513271575048636    0.8116044678208458    0.7671208852038269 Bi
   0.2866212751519224    0.3998397619384927    0.7671208852038270 Bi
   0.4434840202499614    0.4586632913502575    0.7671208852038269 Bi
   0.6003467653480008    0.5174868207620223    0.7671208852038269 Bi
   0.7572095104460399    0.5763103501737870    0.7671208852038269 Bi
   0.9140722555440789    0.6351338795855517    0.7671208852038269 Bi
   0.0709350006421186    0.6939574089973164    0.7671208852038269 Bi
   0.3062291182891773    0.2821927031149634    0.7671208852038270 Bi
   0.4630918633872164    0.3410162325267281    0.7671208852038270 Bi
   0.6199546084852555    0.3998397619384929    0.7671208852038269 Bi
   0.7768173535832950    0.4586632913502574    0.7671208852038269 Bi
   0.9336800986813338    0.5174868207620222    0.7671208852038269 Bi
   0.0905428437793735    0.5763103501737871    0.7671208852038269 Bi
   0.3258369614264320    0.1645456442914340    0.7671208852038270 Bi
   0.4826997065244714    0.2233691737031986    0.7671208852038270 Bi
   0.6395624516225105    0.2821927031149634    0.7671208852038270 Bi
   0.7964251967205496    0.3410162325267281    0.7671208852038269 Bi
   0.9532879418185888    0.3998397619384928    0.7671208852038270 Bi
   0.1101506869166282    0.4586632913502575    0.7671208852038270 Bi
   0.1885820594656477    0.9880750560561398    0.7671208852038270 Bi
   0.3454448045636869    0.0468985854679045    0.7671208852038270 Bi
   0.5023075496617261    0.1057221148796692    0.7671208852038270 Bi
   0.6591702947597653    0.1645456442914339    0.7671208852038270 Bi
   0.8160330398578046    0.2233691737031986    0.7671208852038270 Bi
   0.9728957849558435    0.2821927031149634    0.7671208852038270 Bi
   0.1297585300538830    0.3410162325267281    0.7671208852038270 Bi
   0.5219153927989810    0.9880750560561398    0.7671208852038270 Bi
   0.6787781378970201    0.0468985854679045    0.7671208852038270 Bi
   0.8356408829950592    0.1057221148796692    0.7671208852038270 Bi
   0.9925036280930986    0.1645456442914339    0.7671208852038270 Bi
   0.1493663731911376    0.2233691737031986    0.7671208852038270 Bi
   0.8552487261323143    0.9880750560561398    0.7671208852038270 Bi
   0.0121114712303535    0.0468985854679045    0.7671208852038270 Bi
   0.1689742163283926    0.1057221148796692    0.7671208852038270 Bi
   0.0361830994432238    0.8904517089552380    0.6873709670584139 Bi
   0.1930458445412623    0.9492752383670027    0.6873709670584139 Bi
   0.0557909425804787    0.7728046501317085    0.6873709670584139 Bi
   0.2126536876785177    0.8316281795434732    0.6873709670584139 Bi
   0.3695164327765567    0.8904517089552378    0.6873709670584139 Bi
   0.5263791778745960    0.9492752383670026    0.6873709670584139 Bi
   0.0753987857177335    0.6551575913081790    0.6873709670584139 Bi
   0.2322615308157722    0.7139811207199439    0.6873709670584139 Bi
   0.3891242759138117    0.7728046501317085    0.6873709670584139 Bi
   0.5459870210118510    0.8316281795434730    0.6873709670584139 Bi
   0.7028497661098903    0.8904517089552377    0.6873709670584139 Bi
   0.8597125112079289    0.9492752383670027    0.6873709670584139 Bi
   0.0950066288549884    0.5375105324846496    0.6873709670584138 Bi
   0.2518693739530278    0.5963340618964142    0.6873709670584139 Bi
   0.4087321190510669    0.6551575913081789    0.6873709670584139 Bi
   0.5655948641491059    0.7139811207199438    0.6873709670584139 Bi
   0.7224576092471453    0.7728046501317083    0.6873709670584139 Bi
   0.8793203543451842    0.8316281795434730    0.6873709670584139 Bi
   0.1146144719922432    0.4198634736611201    0.6873709670584138 Bi
   0.2714772170902824    0.4786870030728849    0.6873709670584138 Bi
   0.4283399621883220    0.5375105324846495    0.6873709670584139 Bi
   0.5852027072863611    0.5963340618964144    0.6873709670584139 Bi
   0.7420654523844004    0.6551575913081789    0.6873709670584139 Bi
   0.8989281974824392    0.7139811207199437    0.6873709670584139 Bi
   0.1342223151294982    0.3022164148375907    0.6873709670584138 Bi
   0.2910850602275374    0.3610399442493554    0.6873709670584138 Bi
   0.4479478053255767    0.4198634736611200    0.6873709670584138 Bi
   0.6048105504236160    0.4786870030728848    0.6873709670584138 Bi
   0.7616732955216550    0.5375105324846496    0.6873709670584139 Bi
   0.9185360406196943    0.5963340618964142    0.6873709670584138 Bi
   0.1538301582667530    0.1845693560140612    0.6873709670584138 Bi
   0.3106929033647924    0.2433928854258260    0.6873709670584138 Bi
   0.4675556484628314    0.3022164148375907    0.6873709670584138 Bi
   0.6244183935608706    0.3610399442493554    0.6873709670584138 Bi
   0.7812811386589095    0.4198634736611201    0.6873709670584138 Bi
   0.9381438837569495    0.4786870030728849    0.6873709670584138 Bi
   0.0165752563059688    0.0080987677787671    0.6873709670584139 Bi
   0.1734380014040080    0.0669222971905318    0.6873709670584138 Bi
   0.3303007465020472    0.1257458266022965    0.6873709670584138 Bi
   0.4871634916000864    0.1845693560140612    0.6873709670584138 Bi
   0.6440262366981255    0.2433928854258260    0.6873709670584138 Bi
   0.8008889817961646    0.3022164148375907    0.6873709670584138 Bi
   0.9577517268942038    0.3610399442493554    0.6873709670584138 Bi
   0.3499085896393020    0.0080987677787671    0.6873709670584138 Bi
   0.5067713347373412    0.0669222971905318    0.6873709670584138 Bi
   0.6636340798353804    0.1257458266022965    0.6873709670584138 Bi
   0.8204968249334196    0.1845693560140612    0.6873709670584138 Bi
   0.9773595700314588    0.2433928854258260    0.6873709670584138 Bi
   0.6832419229726354    0.0080987677787671    0.6873709670584138 Bi
   0.8401046680706744    0.0669222971905318    0.6873709670584138 Bi
   0.9969674131687137    0.1257458266022966    0.6873709670584138 Bi
   0.0309822656838408    0.8901685908471232    0.5665155440360311 Bi
   0.1878450107818800    0.9489921202588880    0.5665155440360311 Bi
   0.0505901088210957    0.7725215320235939    0.5665155440360310 Bi
   0.2074528539191349    0.8313450614353587    0.5665155440360311 Bi
   0.3643155990171741    0.8901685908471233    0.5665155440360311 Bi
   0.5211783441152131    0.9489921202588879    0.5665155440360311 Bi
   0.0701979519583503    0.6548744732000645    0.5665155440360310 Bi
   0.2270606970563897    0.7136980026118293    0.5665155440360310 Bi
   0.3839234421544289    0.7725215320235939    0.5665155440360311 Bi
   0.5407861872524681    0.8313450614353587    0.5665155440360311 Bi
   0.6976489323505075    0.8901685908471233    0.5665155440360311 Bi
   0.8545116774485459    0.9489921202588880    0.5665155440360311 Bi
   0.0898057950956052    0.5372274143765351    0.5665155440360310 Bi
   0.2466685401936444    0.5960509437882998    0.5665155440360310 Bi
   0.4035312852916835    0.6548744732000645    0.5665155440360310 Bi
   0.5603940303897231    0.7136980026118291    0.5665155440360311 Bi
   0.7172567754877625    0.7725215320235939    0.5665155440360311 Bi
   0.8741195205858012    0.8313450614353587    0.5665155440360311 Bi
   0.1094136382328602    0.4195803555530055    0.5665155440360311 Bi
   0.2662763833308994    0.4784038849647703    0.5665155440360311 Bi
   0.4231391284289383    0.5372274143765351    0.5665155440360310 Bi
   0.5800018735269777    0.5960509437882996    0.5665155440360310 Bi
   0.7368646186250173    0.6548744732000644    0.5665155440360310 Bi
   0.8937273637230563    0.7136980026118291    0.5665155440360310 Bi
   0.1290214813701150    0.3019332967294761    0.5665155440360311 Bi
   0.2858842264681540    0.3607568261412408    0.5665155440360311 Bi
   0.4427469715661934    0.4195803555530055    0.5665155440360311 Bi
   0.5996097166642325    0.4784038849647703    0.5665155440360310 Bi
   0.7564724617622718    0.5372274143765350    0.5665155440360310 Bi
   0.9133352068603111    0.5960509437882998    0.5665155440360310 Bi
   0.1486293245073700    0.1842862379059467    0.5665155440360311 Bi
   0.3054920696054090    0.2431097673177113    0.5665155440360311 Bi
   0.4623548147034485    0.3019332967294761    0.5665155440360311 Bi
   0.6192175598014875    0.3607568261412408    0.5665155440360311 Bi
   0.7760803048995265    0.4195803555530055    0.5665155440360310 Bi
   0.9329430499975657    0.4784038849647701    0.5665155440360311 Bi
   0.0113744225465856    0.0078156496706525    0.5665155440360311 Bi
   0.1682371676446248    0.0666391790824172    0.5665155440360311 Bi
   0.3250999127426641    0.1254627084941819    0.5665155440360311 Bi
   0.4819626578407032    0.1842862379059466    0.5665155440360311 Bi
   0.6388254029387422    0.2431097673177113    0.5665155440360311 Bi
   0.7956881480367817    0.3019332967294761    0.5665155440360311 Bi
   0.9525508931348209    0.3607568261412408    0.5665155440360311 Bi
   0.3447077558799189    0.0078156496706525    0.5665155440360311 Bi
   0.5015705009779581    0.0666391790824172    0.5665155440360311 Bi
   0.6584332460759976    0.1254627084941819    0.5665155440360311 Bi
   0.8152959911740362    0.1842862379059466    0.5665155440360311 Bi
   0.9721587362720755    0.2431097673177113    0.5665155440360311 Bi
   0.6780410892132520    0.0078156496706524    0.5665155440360311 Bi
   0.8349038343112913    0.0666391790824172    0.5665155440360311 Bi
   0.9917665794093306    0.1254627084941819    0.5665155440360311 Bi
   0.0373281048687319    0.8513026856714350    0.4870641414761426 Bi
   0.1941908499667707    0.9101262150832000    0.4870641414761426 Bi
   0.0569359480059866    0.7336556268479059    0.4870641414761426 Bi
   0.2137986931040258    0.7924791562596705    0.4870641414761426 Bi
   0.3706614382020645    0.8513026856714352    0.4870641414761426 Bi
   0.5275241833001039    0.9101262150831998    0.4870641414761426 Bi
   0.0765437911432414    0.6160085680243765    0.4870641414761426 Bi
   0.2334065362412803    0.6748320974361411    0.4870641414761426 Bi
   0.3902692813393198    0.7336556268479058    0.4870641414761426 Bi
   0.5471320264373588    0.7924791562596705    0.4870641414761426 Bi
   0.7039947715353981    0.8513026856714352    0.4870641414761426 Bi
   0.8608575166334367    0.9101262150831999    0.4870641414761426 Bi
   0.0961516342804963    0.4983615092008468    0.4870641414761426 Bi
   0.2530143793785355    0.5571850386126117    0.4870641414761426 Bi
   0.4098771244765746    0.6160085680243764    0.4870641414761426 Bi
   0.5667398695746138    0.6748320974361410    0.4870641414761426 Bi
   0.7236026146726527    0.7336556268479058    0.4870641414761426 Bi
   0.8804653597706920    0.7924791562596705    0.4870641414761426 Bi
   0.1157594774177512    0.3807144503773174    0.4870641414761426 Bi
   0.2726222225157904    0.4395379797890822    0.4870641414761426 Bi
   0.4294849676138295    0.4983615092008470    0.4870641414761426 Bi
   0.5863477127118688    0.5571850386126115    0.4870641414761426 Bi
   0.7432104578099078    0.6160085680243763    0.4870641414761426 Bi
   0.9000732029079472    0.6748320974361411    0.4870641414761426 Bi
   0.1353673205550061    0.2630673915537879    0.4870641414761426 Bi
   0.2922300656530454    0.3218909209655526    0.4870641414761426 Bi
   0.4490928107510845    0.3807144503773174    0.4870641414761426 Bi
   0.6059555558491236    0.4395379797890822    0.4870641414761426 Bi
   0.7628183009471625    0.4983615092008469    0.4870641414761426 Bi
   0.9196810460452022    0.5571850386126116    0.4870641414761426 Bi
   0.1549751636922609    0.1454203327302585    0.4870641414761426 Bi
   0.3118379087903003    0.2042438621420232    0.4870641414761426 Bi
   0.4687006538883394    0.2630673915537879    0.4870641414761426 Bi
   0.6255633989863786    0.3218909209655526    0.4870641414761426 Bi
   0.7824261440844177    0.3807144503773174    0.4870641414761426 Bi
   0.9392888891824569    0.4395379797890822    0.4870641414761426 Bi
   0.0177202617314762    0.9689497444949645    0.4870641414761426 Bi
   0.1745830068295158    0.0277732739067290    0.4870641414761426 Bi
   0.3314457519275550    0.0865968033184938    0.4870641414761426 Bi
   0.4883084970255943    0.1454203327302585    0.4870641414761426 Bi
   0.6451712421236334    0.2042438621420232    0.4870641414761426 Bi
   0.8020339872216726    0.2630673915537879    0.4870641414761426 Bi
   0.9588967323197120    0.3218909209655526    0.4870641414761426 Bi
   0.3510535950648095    0.9689497444949645    0.4870641414761426 Bi
   0.5079163401628490    0.0277732739067290    0.4870641414761426 Bi
   0.6647790852608881    0.0865968033184937    0.4870641414761426 Bi
   0.8216418303589275    0.1454203327302584    0.4870641414761426 Bi
   0.9785045754569666    0.2042438621420233    0.4870641414761426 Bi
   0.6843869283981430    0.9689497444949645    0.4870641414761426 Bi
   0.8412496734961822    0.0277732739067290    0.4870641414761426 Bi
   0.9981124185942215    0.0865968033184937    0.4870641414761426 Bi
   0.8962351540655780    0.9964801862090359    0.2000427878291579 Se
   0.0854243432547671    0.0370207267495765    0.2000427878291579 Se
   0.3556946135250373    0.0235072132360630    0.2000427878291579 Se
   0.6259648837953073    0.0099936997225494    0.2000427878291579 Se
   0.0043432621736860    0.0910747808036305    0.2000427878291579 Se
   0.2746135324439563    0.0775612672901170    0.2000427878291579 Se
   0.5448838027142263    0.0640477537766035    0.2000427878291580 Se
   0.8151540729844966    0.0505342402630900    0.2000427878291580 Se
   0.9232621810926049    0.1451288348576846    0.2000427878291579 Se
   0.1935324513628751    0.1316153213441710    0.2000427878291580 Se
   0.4638027216331454    0.1181018078306576    0.2000427878291580 Se
   0.7340729919034156    0.1045882943171440    0.2000427878291580 Se
   0.1124513702817941    0.1856693753982251    0.2000427878291580 Se
   0.3827216405520641    0.1721558618847116    0.2000427878291580 Se
   0.6529919108223343    0.1586423483711980    0.2000427878291580 Se
   0.0313702892007131    0.2397234294522792    0.2000427878291580 Se
   0.3016405594709832    0.2262099159387657    0.2000427878291580 Se
   0.5719108297412532    0.2126964024252521    0.2000427878291580 Se
   0.8421811000115234    0.1991828889117386    0.2000427878291580 Se
   0.9502892081196319    0.2937774835063332    0.2000427878291580 Se
   0.2205594783899021    0.2802639699928197    0.2000427878291580 Se
   0.4908297486601724    0.2667504564793062    0.2000427878291580 Se
   0.7611000189304423    0.2532369429657927    0.2000427878291580 Se
   0.1394783973088211    0.3343180240468738    0.2000427878291580 Se
   0.4097486675790912    0.3208045105333602    0.2000427878291580 Se
   0.6800189378493615    0.3072909970198467    0.2000427878291579 Se
   0.0583973162277399    0.3883720781009278    0.2000427878291580 Se
   0.3286675864980103    0.3748585645874143    0.2000427878291579 Se
   0.5989378567682803    0.3613450510739008    0.2000427878291579 Se
   0.8692081270385507    0.3478315375603873    0.2000427878291579 Se
   0.9773162351466588    0.4424261321549819    0.2000427878291579 Se
   0.2475865054169290    0.4289126186414684    0.2000427878291579 Se
   0.5178567756871992    0.4153991051279549    0.2000427878291579 Se
   0.7881270459574695    0.4018855916144413    0.2000427878291579 Se
   0.8962351540655780    0.4964801862090359    0.2000427878291579 Se
   0.1665054243358480    0.4829666726955224    0.2000427878291579 Se
   0.4367756946061181    0.4694531591820090    0.2000427878291579 Se
   0.7070459648763884    0.4559396456684954    0.2000427878291579 Se
   0.0854243432547670    0.5370207267495763    0.2000427878291579 Se
   0.3556946135250372    0.5235072132360630    0.2000427878291579 Se
   0.6259648837953073    0.5099936997225495    0.2000427878291579 Se
   0.0043432621736858    0.5910747808036306    0.2000427878291579 Se
   0.2746135324439559    0.5775612672901171    0.2000427878291579 Se
   0.5448838027142265    0.5640477537766035    0.2000427878291580 Se
   0.8151540729844968    0.5505342402630899    0.2000427878291580 Se
   0.9232621810926048    0.6451288348576845    0.2000427878291579 Se
   0.1935324513628748    0.6316153213441713    0.2000427878291580 Se
   0.4638027216331451    0.6181018078306577    0.2000427878291580 Se
   0.7340729919034157    0.6045882943171441    0.2000427878291580 Se
   0.1124513702817942    0.6856693753982253    0.2000427878291580 Se
   0.3827216405520643    0.6721558618847117    0.2000427878291580 Se
   0.6529919108223348    0.6586423483711982    0.2000427878291580 Se
   0.0313702892007129    0.7397234294522793    0.2000427878291580 Se
   0.3016405594709833    0.7262099159387657    0.2000427878291580 Se
   0.5719108297412535    0.7126964024252522    0.2000427878291580 Se
   0.8421811000115237    0.6991828889117385    0.2000427878291580 Se
   0.9502892081196316    0.7937774835063335    0.2000427878291580 Se
   0.2205594783899019    0.7802639699928198    0.2000427878291580 Se
   0.4908297486601725    0.7667504564793061    0.2000427878291580 Se
   0.7611000189304425    0.7532369429657928    0.2000427878291579 Se
   0.1394783973088208    0.8343180240468738    0.2000427878291580 Se
   0.4097486675790911    0.8208045105333603    0.2000427878291579 Se
   0.6800189378493611    0.8072909970198469    0.2000427878291579 Se
   0.0583973162277396    0.8883720781009280    0.2000427878291579 Se
   0.3286675864980095    0.8748585645874145    0.2000427878291579 Se
   0.5989378567682800    0.8613450510739010    0.2000427878291579 Se
   0.8692081270385504    0.8478315375603875    0.2000427878291579 Se
   0.9773162351466588    0.9424261321549822    0.2000427878291579 Se
   0.2475865054169288    0.9289126186414686    0.2000427878291579 Se
   0.5178567756871989    0.9153991051279551    0.2000427878291579 Se
   0.7881270459574693    0.9018855916144415    0.2000427878291579 Se
   0.1665054243358478    0.9829666726955225    0.2000427878291579 Se
   0.4367756946061182    0.9694531591820091    0.2000427878291579 Se
   0.7070459648763880    0.9559396456684957    0.2000427878291579 Se
   0.0131090642912488    0.9738032166160697    0.3229896502366213 Se
   0.2022982534804377    0.0143437571566102    0.3229896502366213 Se
   0.4725685237507079    0.0008302436430967    0.3229896502366213 Se
   0.7428387940209782    0.9873167301295831    0.3229896502366213 Se
   0.1212171723993566    0.0683978112106642    0.3229896502366213 Se