Nb72 Bi100 Se294
1.0
  20.7814246906816678    0.0000000000000000    0.0000000000000013
  10.3907123443432603   17.9972417095394448    0.0000000000000013
   0.0000000000000000    0.0000000000000000   49.9893053307188922
Nb Bi Se
72 100 294
direct
   0.7918600804882758    0.6406017794075723    0.3566429020965912 Nb
   0.6251934138216091    0.6406017794075723    0.3566429020965912 Nb
   0.4585267471549425    0.6406017794075723    0.3566429020965912 Nb
   0.2918600804882759    0.6406017794075723    0.3566429020965912 Nb
   0.1251934138216093    0.6406017794075723    0.3566429020965912 Nb
   0.9585267471549426    0.6406017794075723    0.3566429020965912 Nb
   0.7918600804882756    0.4739351127409058    0.3566429020965912 Nb
   0.6251934138216091    0.4739351127409058    0.3566429020965912 Nb
   0.4585267471549426    0.4739351127409058    0.3566429020965912 Nb
   0.2918600804882758    0.4739351127409058    0.3566429020965912 Nb
   0.1251934138216092    0.4739351127409058    0.3566429020965912 Nb
   0.9585267471549423    0.4739351127409058    0.3566429020965912 Nb
   0.7918600804882756    0.3072684460742391    0.3566429020965912 Nb
   0.6251934138216092    0.3072684460742392    0.3566429020965912 Nb
   0.4585267471549423    0.3072684460742391    0.3566429020965912 Nb
   0.2918600804882758    0.3072684460742393    0.3566429020965912 Nb
   0.1251934138216090    0.3072684460742392    0.3566429020965912 Nb
   0.9585267471549426    0.3072684460742392    0.3566429020965912 Nb
   0.7918600804882756    0.1406017794075726    0.3566429020965912 Nb
   0.6251934138216089    0.1406017794075725    0.3566429020965912 Nb
   0.4585267471549425    0.1406017794075725    0.3566429020965912 Nb
   0.2918600804882757    0.1406017794075725    0.3566429020965912 Nb
   0.1251934138216091    0.1406017794075725    0.3566429020965912 Nb
   0.9585267471549423    0.1406017794075726    0.3566429020965912 Nb
   0.7918600804882755    0.9739351127409059    0.3566429020965912 Nb
   0.6251934138216091    0.9739351127409057    0.3566429020965912 Nb
   0.4585267471549424    0.9739351127409059    0.3566429020965912 Nb
   0.2918600804882758    0.9739351127409058    0.3566429020965912 Nb
   0.1251934138216091    0.9739351127409058    0.3566429020965912 Nb
   0.9585267471549422    0.9739351127409059    0.3566429020965912 Nb
   0.7918600804882759    0.8072684460742391    0.3566429020965912 Nb
   0.6251934138216092    0.8072684460742391    0.3566429020965912 Nb
   0.4585267471549426    0.8072684460742391    0.3566429020965912 Nb
   0.2918600804882758    0.8072684460742391    0.3566429020965912 Nb
   0.1251934138216092    0.8072684460742391    0.3566429020965912 Nb
   0.9585267471549427    0.8072684460742392    0.3566429020965913 Nb
   0.7920838323017184    0.6400596875165543    0.2336917587878816 Nb
   0.6254171656350518    0.6400596875165543    0.2336917587878816 Nb
   0.4587504989683850    0.6400596875165543    0.2336917587878816 Nb
   0.2920838323017185    0.6400596875165544    0.2336917587878816 Nb
   0.1254171656350519    0.6400596875165543    0.2336917587878816 Nb
   0.9587504989683849    0.6400596875165543    0.2336917587878816 Nb
   0.7920838323017185    0.4733930208498877    0.2336917587878816 Nb
   0.6254171656350518    0.4733930208498877    0.2336917587878816 Nb
   0.4587504989683852    0.4733930208498877    0.2336917587878816 Nb
   0.2920838323017185    0.4733930208498877    0.2336917587878816 Nb
   0.1254171656350518    0.4733930208498877    0.2336917587878816 Nb
   0.9587504989683850    0.4733930208498877    0.2336917587878816 Nb
   0.7920838323017182    0.3067263541832210    0.2336917587878816 Nb
   0.6254171656350517    0.3067263541832210    0.2336917587878816 Nb
   0.4587504989683850    0.3067263541832210    0.2336917587878816 Nb
   0.2920838323017184    0.3067263541832210    0.2336917587878816 Nb
   0.1254171656350516    0.3067263541832210    0.2336917587878816 Nb
   0.9587504989683852    0.3067263541832210    0.2336917587878816 Nb
   0.7920838323017184    0.1400596875165544    0.2336917587878816 Nb
   0.6254171656350518    0.1400596875165544    0.2336917587878816 Nb
   0.4587504989683849    0.1400596875165544    0.2336917587878816 Nb
   0.2920838323017184    0.1400596875165543    0.2336917587878816 Nb
   0.1254171656350518    0.1400596875165544    0.2336917587878816 Nb
   0.9587504989683850    0.1400596875165544    0.2336917587878816 Nb
   0.7920838323017185    0.9733930208498877    0.2336917587878816 Nb
   0.6254171656350518    0.9733930208498877    0.2336917587878816 Nb
   0.4587504989683851    0.9733930208498878    0.2336917587878816 Nb
   0.2920838323017184    0.9733930208498878    0.2336917587878816 Nb
   0.1254171656350518    0.9733930208498877    0.2336917587878816 Nb
   0.9587504989683852    0.9733930208498877    0.2336917587878816 Nb
   0.7920838323017184    0.8067263541832210    0.2336917587878816 Nb
   0.6254171656350517    0.8067263541832210    0.2336917587878816 Nb
   0.4587504989683851    0.8067263541832210    0.2336917587878816 Nb
   0.2920838323017182    0.8067263541832210    0.2336917587878816 Nb
   0.1254171656350519    0.8067263541832210    0.2336917587878816 Nb
   0.9587504989683852    0.8067263541832210    0.2336917587878816 Nb
   0.1341947762054440    0.5288614596172658    0.7671208852038272 Bi
   0.1341947762054442    0.3288614596172657    0.7671208852038270 Bi
   0.1341947762054441    0.1288614596172656    0.7671208852038270 Bi
   0.1341947762054441    0.9288614596172656    0.7671208852038270 Bi
   0.1341947762054443    0.7288614596172656    0.7671208852038272 Bi
   0.3341947762054443    0.5288614596172658    0.7671208852038272 Bi
   0.3341947762054443    0.3288614596172657    0.7671208852038272 Bi
   0.3341947762054441    0.1288614596172656    0.7671208852038270 Bi
   0.3341947762054442    0.9288614596172656    0.7671208852038270 Bi
   0.3341947762054442    0.7288614596172656    0.7671208852038272 Bi
   0.5341947762054442    0.5288614596172658    0.7671208852038272 Bi
   0.5341947762054444    0.3288614596172657    0.7671208852038272 Bi
   0.5341947762054443    0.1288614596172656    0.7671208852038272 Bi
   0.5341947762054443    0.9288614596172656    0.7671208852038270 Bi
   0.5341947762054443    0.7288614596172656    0.7671208852038272 Bi
   0.7341947762054443    0.5288614596172658    0.7671208852038272 Bi
   0.7341947762054446    0.3288614596172657    0.7671208852038272 Bi
   0.7341947762054442    0.1288614596172656    0.7671208852038272 Bi
   0.7341947762054444    0.9288614596172656    0.7671208852038272 Bi
   0.7341947762054446    0.7288614596172656    0.7671208852038272 Bi
   0.9341947762054440    0.5288614596172658    0.7671208852038272 Bi
   0.9341947762054446    0.3288614596172657    0.7671208852038272 Bi
   0.9341947762054443    0.1288614596172656    0.7671208852038272 Bi
   0.9341947762054441    0.9288614596172656    0.7671208852038272 Bi
   0.9341947762054446    0.7288614596172656    0.7671208852038272 Bi
   0.9989527555534331    0.5960228604123438    0.6873709670584138 Bi
   0.9989527555534331    0.3960228604123439    0.6873709670584138 Bi
   0.9989527555534331    0.1960228604123438    0.6873709670584138 Bi
   0.9989527555534331    0.9960228604123438    0.6873709670584139 Bi
   0.9989527555534331    0.7960228604123438    0.6873709670584138 Bi
   0.1989527555534332    0.5960228604123438    0.6873709670584138 Bi
   0.1989527555534331    0.3960228604123439    0.6873709670584138 Bi
   0.1989527555534331    0.1960228604123438    0.6873709670584138 Bi
   0.1989527555534331    0.9960228604123438    0.6873709670584138 Bi
   0.1989527555534331    0.7960228604123438    0.6873709670584138 Bi
   0.3989527555534331    0.5960228604123438    0.6873709670584138 Bi
   0.3989527555534331    0.3960228604123439    0.6873709670584138 Bi
   0.3989527555534332    0.1960228604123438    0.6873709670584138 Bi
   0.3989527555534330    0.9960228604123438    0.6873709670584138 Bi
   0.3989527555534333    0.7960228604123438    0.6873709670584138 Bi
   0.5989527555534335    0.5960228604123438    0.6873709670584138 Bi
   0.5989527555534334    0.3960228604123439    0.6873709670584138 Bi
   0.5989527555534330    0.1960228604123438    0.6873709670584138 Bi
   0.5989527555534331    0.9960228604123438    0.6873709670584138 Bi
   0.5989527555534334    0.7960228604123438    0.6873709670584138 Bi
   0.7989527555534335    0.5960228604123438    0.6873709670584138 Bi
   0.7989527555534331    0.3960228604123439    0.6873709670584138 Bi
   0.7989527555534330    0.1960228604123438    0.6873709670584138 Bi
   0.7989527555534331    0.9960228604123438    0.6873709670584138 Bi
   0.7989527555534335    0.7960228604123438    0.6873709670584138 Bi
   0.9962852442707867    0.5996529732625802    0.5665155440360311 Bi
   0.9962852442707866    0.3996529732625801    0.5665155440360311 Bi
   0.9962852442707866    0.1996529732625800    0.5665155440360311 Bi
   0.9962852442707866    0.9996529732625801    0.5665155440360311 Bi
   0.9962852442707866    0.7996529732625800    0.5665155440360311 Bi
   0.1962852442707867    0.5996529732625802    0.5665155440360311 Bi
   0.1962852442707866    0.3996529732625801    0.5665155440360311 Bi
   0.1962852442707866    0.1996529732625800    0.5665155440360311 Bi
   0.1962852442707866    0.9996529732625801    0.5665155440360311 Bi
   0.1962852442707866    0.7996529732625800    0.5665155440360311 Bi
   0.3962852442707865    0.5996529732625802    0.5665155440360311 Bi
   0.3962852442707866    0.3996529732625801    0.5665155440360311 Bi
   0.3962852442707866    0.1996529732625800    0.5665155440360311 Bi
   0.3962852442707865    0.9996529732625801    0.5665155440360311 Bi
   0.3962852442707868    0.7996529732625800    0.5665155440360311 Bi
   0.5962852442707869    0.5996529732625802    0.5665155440360311 Bi
   0.5962852442707867    0.3996529732625801    0.5665155440360311 Bi
   0.5962852442707867    0.1996529732625800    0.5665155440360311 Bi
   0.5962852442707867    0.9996529732625801    0.5665155440360311 Bi
   0.5962852442707864    0.7996529732625800    0.5665155440360311 Bi
   0.7962852442707870    0.5996529732625802    0.5665155440360311 Bi
   0.7962852442707867    0.3996529732625801    0.5665155440360311 Bi
   0.7962852442707870    0.1996529732625800    0.5665155440360311 Bi
   0.7962852442707870    0.9996529732625801    0.5665155440360311 Bi
   0.7962852442707867    0.7996529732625800    0.5665155440360311 Bi
   0.0622781960628222    0.6658040990678842    0.4870641414761425 Bi
   0.0622781960628222    0.4658040990678841    0.4870641414761425 Bi
   0.0622781960628222    0.2658040990678840    0.4870641414761425 Bi
   0.0622781960628222    0.0658040990678840    0.4870641414761425 Bi
   0.0622781960628223    0.8658040990678841    0.4870641414761425 Bi
   0.2622781960628224    0.6658040990678842    0.4870641414761425 Bi
   0.2622781960628224    0.4658040990678841    0.4870641414761425 Bi
   0.2622781960628223    0.2658040990678840    0.4870641414761425 Bi
   0.2622781960628224    0.0658040990678840    0.4870641414761425 Bi
   0.2622781960628223    0.8658040990678841    0.4870641414761425 Bi
   0.4622781960628221    0.6658040990678842    0.4870641414761425 Bi
   0.4622781960628223    0.4658040990678841    0.4870641414761425 Bi
   0.4622781960628224    0.2658040990678840    0.4870641414761425 Bi
   0.4622781960628223    0.0658040990678840    0.4870641414761425 Bi
   0.4622781960628223    0.8658040990678841    0.4870641414761425 Bi
   0.6622781960628223    0.6658040990678842    0.4870641414761425 Bi
   0.6622781960628223    0.4658040990678841    0.4870641414761425 Bi
   0.6622781960628222    0.2658040990678840    0.4870641414761425 Bi
   0.6622781960628222    0.0658040990678840    0.4870641414761425 Bi
   0.6622781960628227    0.8658040990678841    0.4870641414761425 Bi
   0.8622781960628224    0.6658040990678842    0.4870641414761425 Bi
   0.8622781960628224    0.4658040990678841    0.4870641414761425 Bi
   0.8622781960628223    0.2658040990678840    0.4870641414761425 Bi
   0.8622781960628222    0.0658040990678840    0.4870641414761425 Bi
   0.8622781960628222    0.8658040990678841    0.4870641414761425 Bi
   0.8476703427143716    0.6955956519798879    0.2000427878291579 Se
   0.6810036760477051    0.6955956519798879    0.2000427878291579 Se
   0.5143370093810382    0.6955956519798878    0.2000427878291580 Se
   0.3476703427143718    0.6955956519798879    0.2000427878291580 Se
   0.1810036760477051    0.6955956519798879    0.2000427878291580 Se
   0.0143370093810385    0.6955956519798879    0.2000427878291580 Se
   0.8476703427143716    0.5289289853132214    0.2000427878291579 Se
   0.6810036760477051    0.5289289853132212    0.2000427878291580 Se
   0.5143370093810383    0.5289289853132214    0.2000427878291580 Se
   0.3476703427143716    0.5289289853132214    0.2000427878291580 Se
   0.1810036760477050    0.5289289853132214    0.2000427878291580 Se
   0.0143370093810383    0.5289289853132214    0.2000427878291580 Se
   0.8476703427143717    0.3622623186465546    0.2000427878291580 Se
   0.6810036760477050    0.3622623186465548    0.2000427878291580 Se
   0.5143370093810382    0.3622623186465547    0.2000427878291580 Se
   0.3476703427143717    0.3622623186465548    0.2000427878291580 Se
   0.1810036760477050    0.3622623186465547    0.2000427878291580 Se
   0.0143370093810383    0.3622623186465547    0.2000427878291580 Se
   0.8476703427143717    0.1955956519798880    0.2000427878291580 Se
   0.6810036760477048    0.1955956519798881    0.2000427878291580 Se
   0.5143370093810383    0.1955956519798881    0.2000427878291580 Se
   0.3476703427143716    0.1955956519798880    0.2000427878291580 Se
   0.1810036760477050    0.1955956519798881    0.2000427878291580 Se
   0.0143370093810383    0.1955956519798880    0.2000427878291579 Se
   0.8476703427143715    0.0289289853132215    0.2000427878291580 Se
   0.6810036760477050    0.0289289853132215    0.2000427878291580 Se
   0.5143370093810383    0.0289289853132215    0.2000427878291580 Se
   0.3476703427143716    0.0289289853132214    0.2000427878291580 Se
   0.1810036760477050    0.0289289853132214    0.2000427878291579 Se
   0.0143370093810383    0.0289289853132214    0.2000427878291579 Se
   0.8476703427143716    0.8622623186465546    0.2000427878291580 Se
   0.6810036760477050    0.8622623186465548    0.2000427878291579 Se
   0.5143370093810384    0.8622623186465548    0.2000427878291579 Se
   0.3476703427143717    0.8622623186465548    0.2000427878291580 Se
   0.1810036760477051    0.8622623186465548    0.2000427878291580 Se
   0.0143370093810384    0.8622623186465546    0.2000427878291580 Se
   0.7363204585512817    0.7517065655854971    0.3229896502366213 Se
   0.5696537918846148    0.7517065655854971    0.3229896502366213 Se
   0.4029871252179483    0.7517065655854971    0.3229896502366213 Se
   0.2363204585512817    0.7517065655854971    0.3229896502366213 Se
   0.0696537918846152    0.7517065655854971    0.3229896502366213 Se
   0.9029871252179482    0.7517065655854971    0.3229896502366213 Se
   0.7363204585512815    0.5850398989188306    0.3229896502366213 Se
   0.5696537918846150    0.5850398989188306    0.3229896502366213 Se
   0.4029871252179484    0.5850398989188307    0.3229896502366213 Se
   0.2363204585512817    0.5850398989188306    0.3229896502366213 Se
   0.0696537918846150    0.5850398989188307    0.3229896502366213 Se
   0.9029871252179482    0.5850398989188306    0.3229896502366213 Se
   0.7363204585512816    0.4183732322521639    0.3229896502366213 Se
   0.5696537918846150    0.4183732322521641    0.3229896502366213 Se
   0.4029871252179481    0.4183732322521638    0.3229896502366213 Se
   0.2363204585512816    0.4183732322521641    0.3229896502366213 Se
   0.0696537918846149    0.4183732322521639    0.3229896502366213 Se
   0.9029871252179484    0.4183732322521639    0.3229896502366213 Se
   0.7363204585512817    0.2517065655854973    0.3229896502366213 Se
   0.5696537918846150    0.2517065655854973    0.3229896502366213 Se
   0.4029871252179484    0.2517065655854973    0.3229896502366213 Se
   0.2363204585512817    0.2517065655854973    0.3229896502366213 Se
   0.0696537918846150    0.2517065655854973    0.3229896502366213 Se
   0.9029871252179484    0.2517065655854973    0.3229896502366213 Se
   0.7363204585512816    0.0850398989188306    0.3229896502366213 Se
   0.5696537918846150    0.0850398989188306    0.3229896502366213 Se
   0.4029871252179483    0.0850398989188307    0.3229896502366213 Se
   0.2363204585512816    0.0850398989188306    0.3229896502366213 Se
   0.0696537918846150    0.0850398989188306    0.3229896502366213 Se
   0.9029871252179484    0.0850398989188307    0.3229896502366213 Se
   0.7363204585512816    0.9183732322521641    0.3229896502366213 Se
   0.5696537918846150    0.9183732322521638    0.3229896502366213 Se
   0.4029871252179484    0.9183732322521641    0.3229896502366213 Se
   0.2363204585512817    0.9183732322521641    0.3229896502366213 Se
   0.0696537918846149    0.9183732322521638    0.3229896502366213 Se
   0.9029871252179485    0.9183732322521641    0.3229896502366213 Se
   0.8476268991877912    0.6956529591349587    0.2673459347889959 Se
   0.6809602325211247    0.6956529591349587    0.2673459347889959 Se
   0.5142935658544580    0.6956529591349587    0.2673459347889959 Se
   0.3476268991877913    0.6956529591349587    0.2673459347889959 Se
   0.1809602325211246    0.6956529591349587    0.2673459347889959 Se
   0.0142935658544581    0.6956529591349587    0.2673459347889959 Se
   0.8476268991877912    0.5289862924682921    0.2673459347889959 Se
   0.6809602325211246    0.5289862924682920    0.2673459347889959 Se
   0.5142935658544580    0.5289862924682921    0.2673459347889959 Se
   0.3476268991877913    0.5289862924682921    0.2673459347889959 Se
   0.1809602325211246    0.5289862924682921    0.2673459347889959 Se
   0.0142935658544579    0.5289862924682921    0.2673459347889959 Se
   0.8476268991877912    0.3623196258016255    0.2673459347889959 Se
   0.6809602325211246    0.3623196258016255    0.2673459347889959 Se
   0.5142935658544580    0.3623196258016255    0.2673459347889959 Se
   0.3476268991877913    0.3623196258016255    0.2673459347889959 Se
   0.1809602325211245    0.3623196258016255    0.2673459347889959 Se
   0.0142935658544579    0.3623196258016255    0.2673459347889959 Se
   0.8476268991877913    0.1956529591349589    0.2673459347889959 Se
   0.6809602325211246    0.1956529591349589    0.2673459347889959 Se
   0.5142935658544581    0.1956529591349589    0.2673459347889959 Se
   0.3476268991877912    0.1956529591349588    0.2673459347889959 Se
   0.1809602325211246    0.1956529591349589    0.2673459347889959 Se
   0.0142935658544579    0.1956529591349588    0.2673459347889959 Se
   0.8476268991877912    0.0289862924682922    0.2673459347889959 Se
   0.6809602325211246    0.0289862924682922    0.2673459347889959 Se
   0.5142935658544580    0.0289862924682922    0.2673459347889959 Se
   0.3476268991877912    0.0289862924682922    0.2673459347889959 Se
   0.1809602325211245    0.0289862924682922    0.2673459347889959 Se
   0.0142935658544579    0.0289862924682922    0.2673459347889959 Se
   0.8476268991877913    0.8623196258016256    0.2673459347889959 Se
   0.6809602325211246    0.8623196258016256    0.2673459347889959 Se
   0.5142935658544581    0.8623196258016256    0.2673459347889959 Se
   0.3476268991877912    0.8623196258016256    0.2673459347889959 Se
   0.1809602325211247    0.8623196258016256    0.2673459347889959 Se
   0.0142935658544580    0.8623196258016255    0.2673459347889959 Se
   0.7362715243859661    0.7517592427834889    0.3902928416568580 Se
   0.5696048577192996    0.7517592427834889    0.3902928416568580 Se
   0.4029381910526330    0.7517592427834889    0.3902928416568580 Se
   0.2362715243859662    0.7517592427834889    0.3902928416568580 Se
   0.0696048577192997    0.7517592427834889    0.3902928416568580 Se
   0.9029381910526328    0.7517592427834889    0.3902928416568580 Se
   0.7362715243859663    0.5850925761168223    0.3902928416568580 Se
   0.5696048577192995    0.5850925761168223    0.3902928416568580 Se
   0.4029381910526330    0.5850925761168224    0.3902928416568580 Se
   0.2362715243859663    0.5850925761168223    0.3902928416568580 Se
   0.0696048577192995    0.5850925761168223    0.3902928416568580 Se
   0.9029381910526330    0.5850925761168222    0.3902928416568580 Se
   0.7362715243859662    0.4184259094501556    0.3902928416568580 Se
   0.5696048577192996    0.4184259094501557    0.3902928416568580 Se
   0.4029381910526327    0.4184259094501556    0.3902928416568580 Se
   0.2362715243859660    0.4184259094501557    0.3902928416568580 Se
   0.0696048577192995    0.4184259094501556    0.3902928416568580 Se
   0.9029381910526330    0.4184259094501556    0.3902928416568580 Se
   0.7362715243859662    0.2517592427834890    0.3902928416568580 Se
   0.5696048577192996    0.2517592427834890    0.3902928416568580 Se
   0.4029381910526328    0.2517592427834889    0.3902928416568580 Se
   0.2362715243859661    0.2517592427834889    0.3902928416568580 Se
   0.0696048577192995    0.2517592427834889    0.3902928416568580 Se
   0.9029381910526330    0.2517592427834890    0.3902928416568580 Se
   0.7362715243859661    0.0850925761168223    0.3902928416568580 Se
   0.5696048577192995    0.0850925761168222    0.3902928416568580 Se
   0.4029381910526328    0.0850925761168223    0.3902928416568580 Se
   0.2362715243859662    0.0850925761168223    0.3902928416568580 Se
   0.0696048577192995    0.0850925761168223    0.3902928416568580 Se
   0.9029381910526328    0.0850925761168223    0.3902928416568580 Se
   0.7362715243859661    0.9184259094501556    0.3902928416568580 Se
   0.5696048577192994    0.9184259094501556    0.3902928416568580 Se
   0.4029381910526330    0.9184259094501556    0.3902928416568580 Se
   0.2362715243859662    0.9184259094501556    0.3902928416568580 Se
   0.0696048577192996    0.9184259094501556    0.3902928416568580 Se
   0.9029381910526328    0.9184259094501556    0.3902928416568580 Se
   0.0011725409812009    0.5958859352264521    0.7999572121708419 Se
   0.0011725409812010    0.3958859352264520    0.7999572121708419 Se
   0.0011725409812008    0.1958859352264521    0.7999572121708420 Se
   0.0011725409812009    0.9958859352264520    0.7999572121708420 Se
   0.0011725409812009    0.7958859352264518    0.7999572121708419 Se
   0.2011725409812009    0.5958859352264521    0.7999572121708419 Se
   0.2011725409812010    0.3958859352264520    0.7999572121708419 Se
   0.2011725409812009    0.1958859352264521    0.7999572121708419 Se
   0.2011725409812009    0.9958859352264520    0.7999572121708420 Se
   0.2011725409812010    0.7958859352264518    0.7999572121708419 Se
   0.4011725409812010    0.5958859352264521    0.7999572121708419 Se
   0.4011725409812010    0.3958859352264520    0.7999572121708419 Se
   0.4011725409812009    0.1958859352264521    0.7999572121708419 Se
   0.4011725409812009    0.9958859352264520    0.7999572121708419 Se
   0.4011725409812010    0.7958859352264518    0.7999572121708419 Se
   0.6011725409812012    0.5958859352264521    0.7999572121708419 Se
   0.6011725409812009    0.3958859352264520    0.7999572121708419 Se
   0.6011725409812010    0.1958859352264521    0.7999572121708419 Se
   0.6011725409812009    0.9958859352264520    0.7999572121708419 Se
   0.6011725409812010    0.7958859352264518    0.7999572121708419 Se
   0.8011725409812011    0.5958859352264521    0.7999572121708419 Se
   0.8011725409812009    0.3958859352264520    0.7999572121708419 Se
   0.8011725409812008    0.1958859352264521    0.7999572121708419 Se
   0.8011725409812009    0.9958859352264520    0.7999572121708419 Se
   0.8011725409812011    0.7958859352264518    0.7999572121708419 Se
   0.0665327012218134    0.6618152077143655    0.7271899584285132 Se
   0.0665327012218135    0.4618152077143653    0.7271899584285132 Se
   0.0665327012218135    0.2618152077143653    0.7271899584285132 Se
   0.0665327012218134    0.0618152077143652    0.7271899584285132 Se
   0.0665327012218135    0.8618152077143652    0.7271899584285132 Se
   0.2665327012218134    0.6618152077143655    0.7271899584285132 Se
   0.2665327012218134    0.4618152077143653    0.7271899584285132 Se
   0.2665327012218136    0.2618152077143653    0.7271899584285132 Se
   0.2665327012218136    0.0618152077143652    0.7271899584285132 Se
   0.2665327012218136    0.8618152077143652    0.7271899584285131 Se
   0.4665327012218135    0.6618152077143655    0.7271899584285131 Se
   0.4665327012218136    0.4618152077143653    0.7271899584285132 Se
   0.4665327012218135    0.2618152077143653    0.7271899584285132 Se
   0.4665327012218135    0.0618152077143652    0.7271899584285132 Se
   0.4665327012218136    0.8618152077143652    0.7271899584285131 Se
   0.6665327012218136    0.6618152077143655    0.7271899584285131 Se
   0.6665327012218135    0.4618152077143653    0.7271899584285131 Se
   0.6665327012218134    0.2618152077143653    0.7271899584285132 Se
   0.6665327012218135    0.0618152077143652    0.7271899584285132 Se
   0.6665327012218135    0.8618152077143652    0.7271899584285131 Se
   0.8665327012218138    0.6618152077143655    0.7271899584285131 Se
   0.8665327012218135    0.4618152077143653    0.7271899584285131 Se
   0.8665327012218134    0.2618152077143653    0.7271899584285131 Se
   0.8665327012218136    0.0618152077143652    0.7271899584285132 Se
   0.8665327012218137    0.8618152077143652    0.7271899584285131 Se
   0.1330400962849890    0.5291700078994588    0.6545040291068935 Se
   0.1330400962849892    0.3291700078994585    0.6545040291068935 Se
   0.1330400962849891    0.1291700078994585    0.6545040291068935 Se
   0.1330400962849891    0.9291700078994585    0.6545040291068935 Se
   0.1330400962849892    0.7291700078994586    0.6545040291068935 Se
   0.3330400962849892    0.5291700078994588    0.6545040291068935 Se
   0.3330400962849893    0.3291700078994585    0.6545040291068935 Se
   0.3330400962849892    0.1291700078994585    0.6545040291068935 Se
   0.3330400962849893    0.9291700078994585    0.6545040291068935 Se
   0.3330400962849892    0.7291700078994586    0.6545040291068935 Se
   0.5330400962849893    0.5291700078994588    0.6545040291068935 Se
   0.5330400962849893    0.3291700078994585    0.6545040291068935 Se
   0.5330400962849893    0.1291700078994585    0.6545040291068935 Se
   0.5330400962849892    0.9291700078994585    0.6545040291068935 Se
   0.5330400962849894    0.7291700078994586    0.6545040291068935 Se
   0.7330400962849889    0.5291700078994588    0.6545040291068935 Se
   0.7330400962849895    0.3291700078994585    0.6545040291068935 Se
   0.7330400962849890    0.1291700078994585    0.6545040291068935 Se
   0.7330400962849893    0.9291700078994585    0.6545040291068935 Se
   0.7330400962849896    0.7291700078994586    0.6545040291068935 Se
   0.9330400962849892    0.5291700078994588    0.6545040291068935 Se
   0.9330400962849894    0.3291700078994585    0.6545040291068935 Se
   0.9330400962849891    0.1291700078994585    0.6545040291068935 Se
   0.9330400962849892    0.9291700078994585    0.6545040291068935 Se
   0.9330400962849895    0.7291700078994586    0.6545040291068936 Se
   0.0624339084798007    0.6655791984758079    0.5991574626168228 Se
   0.0624339084798008    0.4655791984758079    0.5991574626168228 Se
   0.0624339084798008    0.2655791984758078    0.5991574626168228 Se
   0.0624339084798008    0.0655791984758078    0.5991574626168228 Se
   0.0624339084798008    0.8655791984758078    0.5991574626168228 Se
   0.2624339084798009    0.6655791984758079    0.5991574626168228 Se
   0.2624339084798010    0.4655791984758079    0.5991574626168228 Se
   0.2624339084798008    0.2655791984758078    0.5991574626168228 Se
   0.2624339084798008    0.0655791984758078    0.5991574626168228 Se
   0.2624339084798009    0.8655791984758078    0.5991574626168228 Se
   0.4624339084798008    0.6655791984758079    0.5991574626168228 Se
   0.4624339084798008    0.4655791984758079    0.5991574626168228 Se
   0.4624339084798009    0.2655791984758078    0.5991574626168228 Se
   0.4624339084798009    0.0655791984758078    0.5991574626168228 Se
   0.4624339084798008    0.8655791984758078    0.5991574626168229 Se
   0.6624339084798009    0.6655791984758079    0.5991574626168229 Se
   0.6624339084798010    0.4655791984758079    0.5991574626168228 Se
   0.6624339084798010    0.2655791984758078    0.5991574626168228 Se
   0.6624339084798010    0.0655791984758078    0.5991574626168228 Se
   0.6624339084798009    0.8655791984758078    0.5991574626168228 Se
   0.8624339084798011    0.6655791984758079    0.5991574626168228 Se
   0.8624339084798007    0.4655791984758079    0.5991574626168229 Se
   0.8624339084798008    0.2655791984758078    0.5991574626168228 Se
   0.8624339084798008    0.0655791984758078    0.5991574626168228 Se
   0.8624339084798011    0.8655791984758078    0.5991574626168228 Se
   0.1291766754505378    0.5331525204866405    0.5267847356324311 Se
   0.1291766754505378    0.3331525204866405    0.5267847356324311 Se
   0.1291766754505377    0.1331525204866405    0.5267847356324311 Se
   0.1291766754505378    0.9331525204866404    0.5267847356324311 Se
   0.1291766754505377    0.7331525204866405    0.5267847356324311 Se
   0.3291766754505378    0.5331525204866405    0.5267847356324311 Se
   0.3291766754505378    0.3331525204866405    0.5267847356324311 Se
   0.3291766754505378    0.1331525204866405    0.5267847356324311 Se
   0.3291766754505378    0.9331525204866404    0.5267847356324311 Se
   0.3291766754505378    0.7331525204866405    0.5267847356324311 Se
   0.5291766754505378    0.5331525204866405    0.5267847356324311 Se
   0.5291766754505378    0.3331525204866405    0.5267847356324311 Se
   0.5291766754505378    0.1331525204866405    0.5267847356324311 Se
   0.5291766754505379    0.9331525204866404    0.5267847356324311 Se
   0.5291766754505378    0.7331525204866405    0.5267847356324311 Se