Nb154 Bi212 Se626
1.0
  19.2843459667862440    0.0000000000000000    0.0000000000000012
   6.5317945998732654   41.4824670890851976    0.0000000000000026
   0.0000000000000000    0.0000000000000000   49.9893053307188922
Nb Bi Se
154 212 626
direct
   0.0198517907035166    0.0117738606734606    0.3566429020965912 Nb
   0.1107608816126076    0.0767089256085255    0.3566429020965912 Nb
   0.2925790634307894    0.0637219126215125    0.3566429020965912 Nb
   0.4743972452489713    0.0507348996344995    0.3566429020965912 Nb
   0.6562154270671530    0.0377478866474865    0.3566429020965912 Nb
   0.8380336088853347    0.0247608736604736    0.3566429020965912 Nb
   0.0198517907035167    0.1546310035306034    0.3566429020965912 Nb
   0.2016699725216985    0.1416439905435904    0.3566429020965912 Nb
   0.3834881543398802    0.1286569775565774    0.3566429020965912 Nb
   0.5653063361580620    0.1156699645695645    0.3566429020965912 Nb
   0.7471245179762438    0.1026829515825515    0.3566429020965912 Nb
   0.9289426997944259    0.0896959385955385    0.3566429020965912 Nb
   0.1107608816126075    0.2195660684656683    0.3566429020965912 Nb
   0.2925790634307894    0.2065790554786553    0.3566429020965912 Nb
   0.4743972452489712    0.1935920424916424    0.3566429020965912 Nb
   0.6562154270671531    0.1806050295046294    0.3566429020965912 Nb
   0.8380336088853346    0.1676180165176163    0.3566429020965912 Nb
   0.0198517907035167    0.2974881463877462    0.3566429020965912 Nb
   0.2016699725216985    0.2845011334007332    0.3566429020965912 Nb
   0.3834881543398802    0.2715141204137203    0.3566429020965912 Nb
   0.5653063361580620    0.2585271074267072    0.3566429020965912 Nb
   0.7471245179762439    0.2455400944396943    0.3566429020965912 Nb
   0.9289426997944260    0.2325530814526813    0.3566429020965912 Nb
   0.1107608816126076    0.3624232113228110    0.3566429020965912 Nb
   0.2925790634307894    0.3494361983357981    0.3566429020965912 Nb
   0.4743972452489713    0.3364491853487851    0.3566429020965912 Nb
   0.6562154270671530    0.3234621723617722    0.3566429020965912 Nb
   0.8380336088853351    0.3104751593747592    0.3566429020965912 Nb
   0.0198517907035168    0.4403452892448889    0.3566429020965912 Nb
   0.2016699725216985    0.4273582762578761    0.3566429020965912 Nb
   0.3834881543398803    0.4143712632708630    0.3566429020965912 Nb
   0.5653063361580619    0.4013842502838501    0.3566429020965912 Nb
   0.7471245179762440    0.3883972372968371    0.3566429020965912 Nb
   0.9289426997944259    0.3754102243098242    0.3566429020965912 Nb
   0.1107608816126077    0.5052803541799539    0.3566429020965912 Nb
   0.2925790634307896    0.4922933411929408    0.3566429020965912 Nb
   0.4743972452489713    0.4793063282059279    0.3566429020965912 Nb
   0.6562154270671530    0.4663193152189150    0.3566429020965912 Nb
   0.8380336088853350    0.4533323022319020    0.3566429020965913 Nb
   0.0198517907035169    0.5832024321020317    0.3566429020965912 Nb
   0.2016699725216985    0.5702154191150188    0.3566429020965912 Nb
   0.3834881543398805    0.5572284061280057    0.3566429020965912 Nb
   0.5653063361580621    0.5442413931409928    0.3566429020965912 Nb
   0.7471245179762440    0.5312543801539799    0.3566429020965913 Nb
   0.9289426997944258    0.5182673671669670    0.3566429020965913 Nb
   0.1107608816126078    0.6481374970370967    0.3566429020965912 Nb
   0.2925790634307896    0.6351504840500837    0.3566429020965912 Nb
   0.4743972452489713    0.6221634710630708    0.3566429020965913 Nb
   0.6562154270671529    0.6091764580760578    0.3566429020965913 Nb
   0.8380336088853353    0.5961894450890448    0.3566429020965913 Nb
   0.0198517907035170    0.7260595749591745    0.3566429020965912 Nb
   0.2016699725216988    0.7130725619721615    0.3566429020965912 Nb
   0.3834881543398807    0.7000855489851487    0.3566429020965913 Nb
   0.5653063361580626    0.6870985359981355    0.3566429020965913 Nb
   0.7471245179762441    0.6741115230111226    0.3566429020965913 Nb
   0.9289426997944260    0.6611245100241097    0.3566429020965913 Nb
   0.1107608816126077    0.7909946398942396    0.3566429020965913 Nb
   0.2925790634307897    0.7780076269072265    0.3566429020965913 Nb
   0.4743972452489716    0.7650206139202136    0.3566429020965913 Nb
   0.6562154270671531    0.7520336009332007    0.3566429020965913 Nb
   0.8380336088853351    0.7390465879461875    0.3566429020965912 Nb
   0.0198517907035166    0.8689167178163177    0.3566429020965913 Nb
   0.2016699725216987    0.8559297048293045    0.3566429020965913 Nb
   0.3834881543398803    0.8429426918422916    0.3566429020965913 Nb
   0.5653063361580625    0.8299556788552783    0.3566429020965913 Nb
   0.7471245179762444    0.8169686658682657    0.3566429020965912 Nb
   0.9289426997944262    0.8039816528812526    0.3566429020965912 Nb
   0.1107608816126076    0.9338517827513826    0.3566429020965913 Nb
   0.2925790634307895    0.9208647697643696    0.3566429020965913 Nb
   0.4743972452489715    0.9078777567773564    0.3566429020965912 Nb
   0.6562154270671534    0.8948907437903435    0.3566429020965912 Nb
   0.8380336088853351    0.8819037308033306    0.3566429020965912 Nb
   0.2016699725216987    0.9987868476864471    0.3566429020965912 Nb
   0.3834881543398807    0.9857998346994342    0.3566429020965912 Nb
   0.5653063361580626    0.9728128217124211    0.3566429020965912 Nb
   0.7471245179762446    0.9598258087254083    0.3566429020965912 Nb
   0.9289426997944263    0.9468387957383955    0.3566429020965912 Nb
   0.0199033843021345    0.0120025005125671    0.2336917587878816 Nb
   0.1108124752112254    0.0769375654476320    0.2336917587878816 Nb
   0.2926306570294073    0.0639505524606190    0.2336917587878816 Nb
   0.4744488388475890    0.0509635394736060    0.2336917587878816 Nb
   0.6562670206657709    0.0379765264865930    0.2336917587878816 Nb
   0.8380852024839528    0.0249895134995800    0.2336917587878816 Nb
   0.0199033843021346    0.1548596433697099    0.2336917587878816 Nb
   0.2017215661203164    0.1418726303826969    0.2336917587878816 Nb
   0.3835397479384982    0.1288856173956839    0.2336917587878816 Nb
   0.5653579297566800    0.1158986044086709    0.2336917587878816 Nb
   0.7471761115748619    0.1029115914216580    0.2336917587878816 Nb
   0.9289942933930437    0.0899245784346450    0.2336917587878816 Nb
   0.1108124752112254    0.2197947083047748    0.2336917587878816 Nb
   0.2926306570294073    0.2068076953177618    0.2336917587878816 Nb
   0.4744488388475891    0.1938206823307489    0.2336917587878816 Nb
   0.6562670206657709    0.1808336693437358    0.2336917587878816 Nb
   0.8380852024839527    0.1678466563567228    0.2336917587878816 Nb
   0.0199033843021346    0.2977167862268527    0.2336917587878816 Nb
   0.2017215661203164    0.2847297732398397    0.2336917587878816 Nb
   0.3835397479384982    0.2717427602528267    0.2336917587878816 Nb
   0.5653579297566799    0.2587557472658137    0.2336917587878816 Nb
   0.7471761115748619    0.2457687342788008    0.2336917587878816 Nb
   0.9289942933930434    0.2327817212917878    0.2336917587878816 Nb
   0.1108124752112256    0.3626518511619176    0.2336917587878816 Nb
   0.2926306570294074    0.3496648381749046    0.2336917587878816 Nb
   0.4744488388475890    0.3366778251878916    0.2336917587878816 Nb
   0.6562670206657708    0.3236908122008786    0.2336917587878816 Nb
   0.8380852024839528    0.3107037992138657    0.2336917587878816 Nb
   0.0199033843021347    0.4405739290839955    0.2336917587878816 Nb
   0.2017215661203164    0.4275869160969825    0.2336917587878816 Nb
   0.3835397479384983    0.4145999031099695    0.2336917587878816 Nb
   0.5653579297566801    0.4016128901229566    0.2336917587878816 Nb
   0.7471761115748617    0.3886258771359437    0.2336917587878816 Nb
   0.9289942933930437    0.3756388641489306    0.2336917587878816 Nb
   0.1108124752112257    0.5055089940190602    0.2336917587878816 Nb
   0.2926306570294074    0.4925219810320474    0.2336917587878816 Nb
   0.4744488388475893    0.4795349680450345    0.2336917587878816 Nb
   0.6562670206657710    0.4665479550580215    0.2336917587878816 Nb
   0.8380852024839530    0.4535609420710085    0.2336917587878816 Nb
   0.0199033843021347    0.5834310719411382    0.2336917587878816 Nb
   0.2017215661203166    0.5704440589541252    0.2336917587878816 Nb
   0.3835397479384982    0.5574570459671124    0.2336917587878816 Nb
   0.5653579297566802    0.5444700329800993    0.2336917587878816 Nb
   0.7471761115748619    0.5314830199930864    0.2336917587878816 Nb
   0.9289942933930437    0.5184960070060732    0.2336917587878816 Nb
   0.1108124752112257    0.6483661368762030    0.2336917587878816 Nb
   0.2926306570294074    0.6353791238891902    0.2336917587878816 Nb
   0.4744488388475894    0.6223921109021772    0.2336917587878816 Nb
   0.6562670206657709    0.6094050979151644    0.2336917587878816 Nb
   0.8380852024839529    0.5964180849281512    0.2336917587878816 Nb
   0.0199033843021348    0.7262882147982809    0.2336917587878816 Nb
   0.2017215661203167    0.7133012018112680    0.2336917587878816 Nb
   0.3835397479384985    0.7003141888242550    0.2336917587878816 Nb
   0.5653579297566802    0.6873271758372421    0.2336917587878816 Nb
   0.7471761115748622    0.6743401628502290    0.2336917587878816 Nb
   0.9289942933930438    0.6613531498632161    0.2336917587878816 Nb
   0.1108124752112258    0.7912232797333459    0.2336917587878816 Nb
   0.2926306570294073    0.7782362667463329    0.2336917587878816 Nb
   0.4744488388475895    0.7652492537593201    0.2336917587878816 Nb
   0.6562670206657710    0.7522622407723071    0.2336917587878816 Nb
   0.8380852024839530    0.7392752277852941    0.2336917587878816 Nb
   0.0199033843021349    0.8691453576554239    0.2336917587878816 Nb
   0.2017215661203166    0.8561583446684110    0.2336917587878816 Nb
   0.3835397479384983    0.8431713316813980    0.2336917587878816 Nb
   0.5653579297566803    0.8301843186943850    0.2336917587878816 Nb
   0.7471761115748623    0.8171973057073719    0.2336917587878816 Nb
   0.9289942933930441    0.8042102927203590    0.2336917587878816 Nb
   0.1108124752112257    0.9340804225904888    0.2336917587878816 Nb
   0.2926306570294077    0.9210934096034757    0.2336917587878816 Nb
   0.4744488388475893    0.9081063966164629    0.2336917587878816 Nb
   0.6562670206657710    0.8951193836294500    0.2336917587878816 Nb
   0.8380852024839528    0.8821323706424371    0.2336917587878816 Nb
   0.2017215661203169    0.9990154875255536    0.2336917587878816 Nb
   0.3835397479384987    0.9860284745385405    0.2336917587878816 Nb
   0.5653579297566803    0.9730414615515276    0.2336917587878816 Nb
   0.7471761115748622    0.9600544485645148    0.2336917587878816 Nb
   0.9289942933930440    0.9470674355775018    0.2336917587878816 Nb
   0.2832757537785790    0.8337309972101822    0.7671208852038272 Bi
   0.4908229235898996    0.8525989217384841    0.7671208852038272 Bi
   0.6983700934012204    0.8714668462667859    0.7671208852038272 Bi
   0.9059172632125413    0.8903347707950877    0.7671208852038272 Bi
   0.2455399047219753    0.7393913745686725    0.7671208852038272 Bi
   0.4530870745332961    0.7582592990969745    0.7671208852038272 Bi
   0.6606342443446170    0.7771272236252765    0.7671208852038272 Bi
   0.8681814141559379    0.7959951481535785    0.7671208852038272 Bi
   0.0757285839672581    0.8148630726818804    0.7671208852038272 Bi
   0.2078040556653715    0.6450517519271634    0.7671208852038272 Bi
   0.4153512254766922    0.6639196764554651    0.7671208852038272 Bi
   0.6228983952880132    0.6827876009837670    0.7671208852038272 Bi
   0.8304455650993336    0.7016555255120689    0.7671208852038272 Bi
   0.0379927349106544    0.7205234500403709    0.7671208852038272 Bi
   0.1700682066087678    0.5507121292856539    0.7671208852038272 Bi
   0.3776153764200885    0.5695800538139558    0.7671208852038272 Bi
   0.5851625462314093    0.5884479783422577    0.7671208852038272 Bi
   0.7927097160427300    0.6073159028705595    0.7671208852038272 Bi
   0.0002568858540506    0.6261838273988615    0.7671208852038272 Bi
   0.1323323575521639    0.4563725066441446    0.7671208852038272 Bi
   0.3398795273634848    0.4752404311724464    0.7671208852038272 Bi
   0.5474266971748056    0.4941083557007484    0.7671208852038272 Bi
   0.7549738669861262    0.5129762802290503    0.7671208852038272 Bi
   0.9625210367974470    0.5318442047573522    0.7671208852038272 Bi
   0.3021436783068809    0.3809008085309369    0.7671208852038272 Bi
   0.5096908481182016    0.3997687330592388    0.7671208852038272 Bi
   0.7172380179295224    0.4186366575875407    0.7671208852038272 Bi
   0.9247851877408431    0.4375045821158425    0.7671208852038272 Bi
   0.2644078292502772    0.2865611858894276    0.7671208852038272 Bi
   0.4719549990615979    0.3054291104177294    0.7671208852038272 Bi
   0.6795021688729185    0.3242970349460312    0.7671208852038272 Bi
   0.8870493386842392    0.3431649594743331    0.7671208852038272 Bi
   0.0945965084955600    0.3620328840026349    0.7671208852038272 Bi
   0.2266719801936734    0.1922215632479181    0.7671208852038272 Bi
   0.4342191500049942    0.2110894877762200    0.7671208852038272 Bi
   0.6417663198163148    0.2299574123045218    0.7671208852038272 Bi
   0.8493134896276356    0.2488253368328237    0.7671208852038272 Bi
   0.0568606594389562    0.2676932613611256    0.7671208852038272 Bi
   0.1889361311370696    0.0978819406064086    0.7671208852038270 Bi
   0.3964833009483903    0.1167498651347105    0.7671208852038272 Bi
   0.6040304707597112    0.1356177896630124    0.7671208852038272 Bi
   0.8115776405710318    0.1544857141913144    0.7671208852038272 Bi
   0.0191248103823527    0.1733536387196162    0.7671208852038270 Bi
   0.1512002820804658    0.0035423179648992    0.7671208852038270 Bi
   0.3587474518917865    0.0224102424932010    0.7671208852038270 Bi
   0.5662946217031073    0.0412781670215030    0.7671208852038272 Bi
   0.7738417915144280    0.0601460915498048    0.7671208852038272 Bi
   0.9813889613257489    0.0790140160781068    0.7671208852038270 Bi
   0.1134644330238620    0.9092026953233897    0.7671208852038272 Bi
   0.3210116028351828    0.9280706198516917    0.7671208852038272 Bi
   0.5285587726465035    0.9469385443799934    0.7671208852038272 Bi
   0.7361059424578245    0.9658064689082957    0.7671208852038272 Bi
   0.9436531122691452    0.9846743934365972    0.7671208852038270 Bi
   0.2390973228878396    0.8911884219710292    0.6873709670584138 Bi
   0.4466444926991605    0.9100563464993311    0.6873709670584138 Bi
   0.6541916625104810    0.9289242710276332    0.6873709670584138 Bi
   0.8617388323218019    0.9477921955559347    0.6873709670584138 Bi
   0.2013614738312358    0.7968487993295198    0.6873709670584138 Bi
   0.4089086436425566    0.8157167238578218    0.6873709670584138 Bi
   0.6164558134538773    0.8345846483861237    0.6873709670584138 Bi
   0.8240029832651982    0.8534525729144254    0.6873709670584138 Bi
   0.0315501530765187    0.8723204974427277    0.6873709670584138 Bi
   0.1636256247746321    0.7025091766880104    0.6873709670584138 Bi
   0.3711727945859528    0.7213771012163123    0.6873709670584138 Bi
   0.5787199643972735    0.7402450257446141    0.6873709670584138 Bi
   0.7862671342085944    0.7591129502729158    0.6873709670584138 Bi
   0.9938143040199150    0.7779808748012179    0.6873709670584138 Bi
   0.1258897757180283    0.6081695540465009    0.6873709670584138 Bi
   0.3334369455293490    0.6270374785748027    0.6873709670584138 Bi
   0.5409841153406698    0.6459054031031047    0.6873709670584138 Bi
   0.7485312851519905    0.6647733276314065    0.6873709670584138 Bi
   0.9560784549633112    0.6836412521597085    0.6873709670584138 Bi
   0.0881539266614244    0.5138299314049914    0.6873709670584138 Bi
   0.2957010964727452    0.5326978559332933    0.6873709670584138 Bi
   0.5032482662840660    0.5515657804615954    0.6873709670584138 Bi
   0.7107954360953869    0.5704337049898972    0.6873709670584138 Bi
   0.9183426059067077    0.5893016295181990    0.6873709670584138 Bi
   0.2579652474161415    0.4383582332917838    0.6873709670584138 Bi
   0.4655124172274623    0.4572261578200856    0.6873709670584138 Bi
   0.6730595870387830    0.4760940823483876    0.6873709670584138 Bi
   0.8806067568501037    0.4949620068766895    0.6873709670584138 Bi
   0.2202293983595377    0.3440186106502744    0.6873709670584138 Bi
   0.4277765681708585    0.3628865351785762    0.6873709670584138 Bi
   0.6353237379821793    0.3817544597068782    0.6873709670584138 Bi
   0.8428709077935000    0.4006223842351800    0.6873709670584138 Bi
   0.0504180776048207    0.4194903087634820    0.6873709670584138 Bi
   0.1824935493029340    0.2496789880087650    0.6873709670584138 Bi
   0.3900407191142548    0.2685469125370669    0.6873709670584138 Bi
   0.5975878889255756    0.2874148370653687    0.6873709670584138 Bi
   0.8051350587368963    0.3062827615936707    0.6873709670584138 Bi
   0.0126822285482169    0.3251506861219726    0.6873709670584138 Bi
   0.1447577002463302    0.1553393653672556    0.6873709670584138 Bi
   0.3523048700576509    0.1742072898955574    0.6873709670584138 Bi
   0.5598520398689716    0.1930752144238593    0.6873709670584138 Bi
   0.7673992096802924    0.2119431389521612    0.6873709670584138 Bi
   0.9749463794916131    0.2308110634804631    0.6873709670584138 Bi
   0.1070218511897264    0.0609997427257461    0.6873709670584138 Bi
   0.3145690210010471    0.0798676672540480    0.6873709670584138 Bi
   0.5221161908123679    0.0987355917823499    0.6873709670584138 Bi
   0.7296633606236888    0.1176035163106517    0.6873709670584138 Bi
   0.9372105304350097    0.1364714408389537    0.6873709670584138 Bi
   0.0692860021331225    0.9666601200842366    0.6873709670584138 Bi
   0.2768331719444433    0.9855280446125385    0.6873709670584138 Bi
   0.4843803417557641    0.0043959691408404    0.6873709670584138 Bi
   0.6919275115670850    0.0232638936691423    0.6873709670584138 Bi
   0.8994746813784056    0.0421318181974442    0.6873709670584138 Bi
   0.2358335286626221    0.8921042185335760    0.5665155440360311 Bi
   0.4433806984739428    0.9109721430618777    0.5665155440360311 Bi
   0.6509278682852636    0.9298400675901797    0.5665155440360311 Bi
   0.8584750380965844    0.9487079921184817    0.5665155440360311 Bi
   0.1980976796060183    0.7977645958920665    0.5665155440360311 Bi
   0.4056448494173391    0.8166325204203684    0.5665155440360311 Bi
   0.6131920192286600    0.8355004449486703    0.5665155440360311 Bi
   0.8207391890399807    0.8543683694769721    0.5665155440360311 Bi
   0.0282863588513011    0.8732362940052741    0.5665155440360311 Bi
   0.1603618305494146    0.7034249732505571    0.5665155440360311 Bi
   0.3679090003607353    0.7222928977788590    0.5665155440360311 Bi
   0.5754561701720562    0.7411608223071610    0.5665155440360311 Bi
   0.7830033399833769    0.7600287468354628    0.5665155440360311 Bi
   0.9905505097946975    0.7788966713637645    0.5665155440360311 Bi
   0.1226259814928108    0.6090853506090478    0.5665155440360311 Bi
   0.3301731513041316    0.6279532751373497    0.5665155440360311 Bi
   0.5377203211154524    0.6468211996656514    0.5665155440360311 Bi
   0.7452674909267730    0.6656891241939533    0.5665155440360311 Bi
   0.9528146607380936    0.6845570487222552    0.5665155440360311 Bi
   0.0848901324362070    0.5147457279675384    0.5665155440360311 Bi
   0.2924373022475278    0.5336136524958403    0.5665155440360311 Bi
   0.4999844720588486    0.5524815770241421    0.5665155440360311 Bi
   0.7075316418701694    0.5713495015524441    0.5665155440360311 Bi
   0.9150788116814902    0.5902174260807458    0.5665155440360311 Bi
   0.2547014531909241    0.4392740298543308    0.5665155440360311 Bi
   0.4622486230022446    0.4581419543826327    0.5665155440360311 Bi
   0.6697957928135658    0.4770098789109345    0.5665155440360311 Bi
   0.8773429626248864    0.4958778034392365    0.5665155440360311 Bi
   0.2169656041343202    0.3449344072128213    0.5665155440360311 Bi
   0.4245127739456409    0.3638023317411231    0.5665155440360311 Bi
   0.6320599437569620    0.3826702562694251    0.5665155440360311 Bi
   0.8396071135682827    0.4015381807977270    0.5665155440360311 Bi
   0.0471542833796033    0.4204061053260287    0.5665155440360311 Bi
   0.1792297550777164    0.2505947845713118    0.5665155440360311 Bi
   0.3867769248890373    0.2694627090996138    0.5665155440360311 Bi
   0.5943240947003581    0.2883306336279156    0.5665155440360311 Bi
   0.8018712645116789    0.3071985581562174    0.5665155440360311 Bi
   0.0094184343229995    0.3260664826845194    0.5665155440360311 Bi
   0.1414939060211126    0.1562551619298024    0.5665155440360311 Bi
   0.3490410758324334    0.1751230864581042    0.5665155440360311 Bi
   0.5565882456437543    0.1939910109864061    0.5665155440360311 Bi
   0.7641354154550751    0.2128589355147080    0.5665155440360311 Bi
   0.9716825852663957    0.2317268600430099    0.5665155440360311 Bi
   0.1037580569645088    0.0619155392882929    0.5665155440360311 Bi
   0.3113052267758296    0.0807834638165948    0.5665155440360311 Bi
   0.5188523965871503    0.0996513883448967    0.5665155440360311 Bi
   0.7263995663984713    0.1185193128731985    0.5665155440360311 Bi
   0.9339467362097917    0.1373872374015005    0.5665155440360311 Bi
   0.0660222079079051    0.9675759166467834    0.5665155440360311 Bi
   0.2735693777192258    0.9864438411750853    0.5665155440360311 Bi
   0.4811165475305466    0.0053117657033873    0.5665155440360311 Bi
   0.6886637173418675    0.0241796902316891    0.5665155440360311 Bi
   0.8962108871531881    0.0430476147599911    0.5665155440360311 Bi
   0.1547346336208848    0.8547347954424930    0.4870641414761425 Bi
   0.3622818034322056    0.8736027199707946    0.4870641414761426 Bi
   0.5698289732435263    0.8924706444990965    0.4870641414761426 Bi
   0.7773761430548474    0.9113385690273984    0.4870641414761426 Bi
   0.1169987845642810    0.7603951728009837    0.4870641414761425 Bi
   0.3245459543756019    0.7792630973292852    0.4870641414761425 Bi
   0.5320931241869225    0.7981310218575871    0.4870641414761426 Bi
   0.7396402939982432    0.8169989463858890    0.4870641414761426 Bi
   0.9471874638095639    0.8358668709141910    0.4870641414761425 Bi
   0.0792629355076773    0.6660555501594742    0.4870641414761425 Bi
   0.2868101053189980    0.6849234746877758    0.4870641414761425 Bi
   0.4943572751303189    0.7037913992160777    0.4870641414761425 Bi
   0.7019044449416395    0.7226593237443796    0.4870641414761426 Bi
   0.9094516147529601    0.7415272482726815    0.4870641414761426 Bi
   0.0415270864510735    0.5717159275179647    0.4870641414761425 Bi
   0.2490742562623944    0.5905838520462664    0.4870641414761425 Bi
   0.4566214260737150    0.6094517765745683    0.4870641414761425 Bi
   0.6641685958850359    0.6283197011028702    0.4870641414761425 Bi
   0.8717157656963563    0.6471876256311720    0.4870641414761426 Bi
   0.0037912373944697    0.4773763048764552    0.4870641414761425 Bi
   0.2113384072057904    0.4962442294047569    0.4870641414761425 Bi
   0.4188855770171113    0.5151121539330589    0.4870641414761425 Bi
   0.6264327468284322    0.5339800784613608    0.4870641414761425 Bi
   0.8339799166397529    0.5528480029896626    0.4870641414761425 Bi
   0.1736025581491867    0.4019046067632474    0.4870641414761425 Bi
   0.3811497279605075    0.4207725312915493    0.4870641414761425 Bi
   0.5886968977718283    0.4396404558198512    0.4870641414761425 Bi
   0.7962440675831489    0.4585083803481532    0.4870641414761425 Bi
   0.1358667090925829    0.3075649841217380    0.4870641414761425 Bi
   0.3434138789039037    0.3264329086500399    0.4870641414761425 Bi
   0.5509610487152247    0.3453008331783418    0.4870641414761425 Bi
   0.7585082185265450    0.3641687577066436    0.4870641414761425 Bi
   0.9660553883378658    0.3830366822349456    0.4870641414761425 Bi
   0.0981308600359790    0.2132253614802286    0.4870641414761425 Bi
   0.3056780298473000    0.2320932860085306    0.4870641414761425 Bi
   0.5132251996586207    0.2509612105368323    0.4870641414761425 Bi
   0.7207723694699414    0.2698291350651342    0.4870641414761425 Bi
   0.9283195392812621    0.2886970595934361    0.4870641414761425 Bi
   0.0603950109793753    0.1188857388387192    0.4870641414761425 Bi
   0.2679421807906961    0.1377536633670210    0.4870641414761425 Bi
   0.4754893506020170    0.1566215878953229    0.4870641414761425 Bi
   0.6830365204133375    0.1754895124236248    0.4870641414761425 Bi
   0.8905836902246583    0.1943574369519266    0.4870641414761425 Bi
   0.0226591619227715    0.0245461161972097    0.4870641414761426 Bi
   0.2302063317340923    0.0434140407255116    0.4870641414761425 Bi
   0.4377535015454131    0.0622819652538135    0.4870641414761425 Bi
   0.6453006713567337    0.0811498897821153    0.4870641414761425 Bi
   0.8528478411680546    0.1000178143104172    0.4870641414761425 Bi
   0.9849233128661677    0.9302064935557005    0.4870641414761425 Bi
   0.1924704826774885    0.9490744180840022    0.4870641414761426 Bi
   0.4000176524888093    0.9679423426123041    0.4870641414761425 Bi
   0.6075648223001301    0.9868102671406059    0.4870641414761425 Bi
   0.8151119921114508    0.0056781916689078    0.4870641414761425 Bi
   0.9289712105083305    0.9946965281564100    0.2000427878291580 Se
   0.0198803014174217    0.0596315930914749    0.2000427878291579 Se
   0.2016984832356035    0.0466445801044620    0.2000427878291579 Se
   0.3835166650537854    0.0336575671174490    0.2000427878291580 Se
   0.5653348468719670    0.0206705541304360    0.2000427878291580 Se
   0.7471530286901491    0.0076835411434230    0.2000427878291580 Se
   0.9289712105083310    0.1375536710135528    0.2000427878291580 Se
   0.1107893923265126    0.1245666580265399    0.2000427878291580 Se
   0.2926075741446944    0.1115796450395269    0.2000427878291580 Se
   0.4744257559628763    0.0985926320525139    0.2000427878291580 Se
   0.6562439377810579    0.0856056190655009    0.2000427878291580 Se
   0.8380621195992402    0.0726186060784880    0.2000427878291580 Se
   0.0198803014174217    0.2024887359486178    0.2000427878291580 Se
   0.2016984832356035    0.1895017229616048    0.2000427878291580 Se
   0.3835166650537853    0.1765147099745918    0.2000427878291580 Se
   0.5653348468719671    0.1635276969875788    0.2000427878291580 Se
   0.7471530286901490    0.1505406840005659    0.2000427878291580 Se
   0.9289712105083310    0.2804108138706957    0.2000427878291579 Se
   0.1107893923265127    0.2674238008836826    0.2000427878291580 Se
   0.2926075741446945    0.2544367878966696    0.2000427878291580 Se
   0.4744257559628761    0.2414497749096567    0.2000427878291580 Se
   0.6562439377810583    0.2284627619226438    0.2000427878291580 Se
   0.8380621195992399    0.2154757489356307    0.2000427878291580 Se
   0.0198803014174218    0.3453458788057605    0.2000427878291580 Se
   0.2016984832356037    0.3323588658187476    0.2000427878291580 Se
   0.3835166650537852    0.3193718528317346    0.2000427878291580 Se
   0.5653348468719673    0.3063848398447216    0.2000427878291580 Se
   0.7471530286901491    0.2933978268577087    0.2000427878291579 Se
   0.9289712105083309    0.4232679567278385    0.2000427878291580 Se
   0.1107893923265126    0.4102809437408254    0.2000427878291580 Se
   0.2926075741446945    0.3972939307538124    0.2000427878291580 Se
   0.4744257559628764    0.3843069177667995    0.2000427878291580 Se
   0.6562439377810581    0.3713199047797867    0.2000427878291579 Se
   0.8380621195992400    0.3583328917927736    0.2000427878291579 Se
   0.0198803014174218    0.4882030216629034    0.2000427878291580 Se
   0.2016984832356037    0.4752160086758902    0.2000427878291580 Se
   0.3835166650537856    0.4622289956888774    0.2000427878291579 Se
   0.5653348468719673    0.4492419827018644    0.2000427878291579 Se
   0.7471530286901493    0.4362549697148513    0.2000427878291579 Se
   0.9289712105083310    0.5661250995849813    0.2000427878291580 Se
   0.1107893923265127    0.5531380865979683    0.2000427878291580 Se
   0.2926075741446945    0.5401510736109552    0.2000427878291579 Se
   0.4744257559628766    0.5271640606239422    0.2000427878291579 Se
   0.6562439377810581    0.5141770476369293    0.2000427878291579 Se
   0.8380621195992398    0.5011900346499163    0.2000427878291580 Se
   0.0198803014174220    0.6310601645200462    0.2000427878291579 Se
   0.2016984832356037    0.6180731515330331    0.2000427878291579 Se
   0.3835166650537857    0.6050861385460202    0.2000427878291579 Se
   0.5653348468719671    0.5920991255590071    0.2000427878291580 Se
   0.7471530286901492    0.5791121125719941    0.2000427878291580 Se
   0.9289712105083313    0.7089822424421240    0.2000427878291580 Se
   0.1107893923265131    0.6959952294551111    0.2000427878291579 Se
   0.2926075741446948    0.6830082164680980    0.2000427878291579 Se
   0.4744257559628767    0.6700212034810851    0.2000427878291580 Se
   0.6562439377810582    0.6570341904940721    0.2000427878291580 Se
   0.8380621195992403    0.6440471775070590    0.2000427878291580 Se
   0.0198803014174220    0.7739173073771889    0.2000427878291579 Se
   0.2016984832356039    0.7609302943901760    0.2000427878291580 Se
   0.3835166650537858    0.7479432814031630    0.2000427878291580 Se
   0.5653348468719673    0.7349562684161499    0.2000427878291580 Se
   0.7471530286901493    0.7219692554291369    0.2000427878291580 Se
   0.9289712105083310    0.8518393852992669    0.2000427878291580 Se
   0.1107893923265129    0.8388523723122540    0.2000427878291580 Se
   0.2926075741446946    0.8258653593252409    0.2000427878291580 Se
   0.4744257559628768    0.8128783463382280    0.2000427878291580 Se