{'film_sl_vectors': array([[ -6.25624176,  18.06021431,   0.        ],
       [-41.70827838,  -7.22408573,   0.        ]]), 'substrate_sl_vectors': array([[-6.92714156, 17.99724171,  0.        ],
       [36.36749321, 20.99678199, -0.        ]]), 'film_vectors': array([[ 4.17082784,  0.        ,  0.        ],
       [-2.08541392,  3.61204286,  0.        ]]), 'substrate_vectors': array([[ 3.46357078,  0.        ,  0.        ],
       [-1.73178539,  2.99954028,  0.        ]]), 'film_transformation': array([[ 1.,  5.],
       [ 0., 53.]]), 'substrate_transformation': array([[ 1.,  6.],
       [ 0., 77.]]), 'strain': Strain([[-0.00789483 -0.00155914  0.        ]
 [-0.00155914  0.00994485  0.        ]
 [ 0.          0.          0.        ]]), 'von_mises_strain': 0.010478211256616, 'termination': ('default', 'default'), 'film_thickness': 1, 'substrate_thickness': 1, 'signed_angle': 1.9451190864585857, 'decomposition_angle': -140.08520052922134}