Nb74 Bi100 Se298
1.0
  21.0680785721207897    0.0000000000000000    0.0000000000000013
  10.5340392858690617   18.2454912535351923    0.0000000000000013
   0.0000000000000000    0.0000000000000000   49.9893053307188922
Nb Bi Se
74 100 298
direct
   0.1390224517810530    0.5747310584228030    0.3566429020965913 Nb
   0.2201035328621341    0.6828391665309114    0.3566429020965913 Nb
   0.3011846139432153    0.7909472746390194    0.3566429020965913 Nb
   0.1660494788080800    0.2774337611255061    0.3566429020965913 Nb
   0.2471305598891612    0.3855418692336142    0.3566429020965913 Nb
   0.3282116409702422    0.4936499773417222    0.3566429020965913 Nb
   0.4092927220513234    0.6017580854498303    0.3566429020965913 Nb
   0.4903738031324045    0.7098661935579386    0.3566429020965913 Nb
   0.5714548842134853    0.8179743016660462    0.3566429020965913 Nb
   0.1119954247540260    0.8720283557201006    0.3566429020965913 Nb
   0.1930765058351071    0.9801364638282087    0.3566429020965913 Nb
   0.2741575869161881    0.0882445719363168    0.3566429020965913 Nb
   0.3552386679972691    0.1963526800444249    0.3566429020965913 Nb
   0.4363197490783503    0.3044607881525331    0.3566429020965913 Nb
   0.5174008301594316    0.4125688962606410    0.3566429020965913 Nb
   0.5984819112405124    0.5206770043687491    0.3566429020965913 Nb
   0.6795629923215936    0.6287851124768572    0.3566429020965913 Nb
   0.7606440734026745    0.7368932205849655    0.3566429020965913 Nb
   0.8417251544837558    0.8450013286930734    0.3566429020965913 Nb
   0.3822656950242964    0.8990553827471276    0.3566429020965913 Nb
   0.4633467761053773    0.0071634908552357    0.3566429020965913 Nb
   0.5444278571864585    0.1152715989633438    0.3566429020965913 Nb
   0.6255089382675397    0.2233797070714520    0.3566429020965913 Nb
   0.7065900193486205    0.3314878151795600    0.3566429020965913 Nb
   0.7876711004297015    0.4395959232876681    0.3566429020965913 Nb
   0.8687521815107828    0.5477040313957762    0.3566429020965913 Nb
   0.9498332625918638    0.6558121395038843    0.3566429020965913 Nb
   0.0309143436729450    0.7639202476119924    0.3566429020965913 Nb
   0.6525359652945665    0.9260824097741547    0.3566429020965913 Nb
   0.7336170463756480    0.0341905178822628    0.3566429020965913 Nb
   0.8146981274567288    0.1422986259903709    0.3566429020965913 Nb
   0.8957792085378099    0.2504067340984789    0.3566429020965913 Nb
   0.9768602896188908    0.3585148422065871    0.3566429020965913 Nb
   0.0579413706999723    0.4666229503146952    0.3566429020965913 Nb
   0.9228062355648369    0.9531094368011818    0.3566429020965913 Nb
   0.0038873166459178    0.0612175449092898    0.3566429020965913 Nb
   0.0849683977269989    0.1693256530173979    0.3566429020965913 Nb
   0.1395289470994528    0.5743222017319669    0.2336917587878816 Nb
   0.2206100281805339    0.6824303098400748    0.2336917587878816 Nb
   0.3016911092616150    0.7905384179481829    0.2336917587878816 Nb
   0.1665559741264798    0.2770249044346695    0.2336917587878817 Nb
   0.2476370552075610    0.3851330125427777    0.2336917587878816 Nb
   0.3287181362886420    0.4932411206508858    0.2336917587878816 Nb
   0.4097992173697232    0.6013492287589939    0.2336917587878816 Nb
   0.4908802984508043    0.7094573368671020    0.2336917587878816 Nb
   0.5719613795318852    0.8175654449752101    0.2336917587878816 Nb
   0.1125019200724258    0.8716194990292641    0.2336917587878816 Nb
   0.1935830011535069    0.9797276071373723    0.2336917587878817 Nb
   0.2746640822345879    0.0878357152454804    0.2336917587878817 Nb
   0.3557451633156691    0.1959438233535885    0.2336917587878816 Nb
   0.4368262443967503    0.3040519314616966    0.2336917587878816 Nb
   0.5179073254778310    0.4121600395698047    0.2336917587878816 Nb
   0.5989884065589122    0.5202681476779126    0.2336917587878816 Nb
   0.6800694876399934    0.6283762557860210    0.2336917587878816 Nb
   0.7611505687210746    0.7364843638941289    0.2336917587878817 Nb
   0.8422316498021560    0.8445924720022369    0.2336917587878817 Nb
   0.3827721903426961    0.8986465260562910    0.2336917587878816 Nb
   0.4638532714237772    0.0067546341643993    0.2336917587878817 Nb
   0.5449343525048582    0.1148627422725074    0.2336917587878816 Nb
   0.6260154335859394    0.2229708503806155    0.2336917587878816 Nb
   0.7070965146670205    0.3310789584887235    0.2336917587878816 Nb
   0.7881775957481015    0.4391870665968318    0.2336917587878816 Nb
   0.8692586768291826    0.5472951747049397    0.2336917587878816 Nb
   0.9503397579102639    0.6554032828130478    0.2336917587878817 Nb
   0.0314208389913447    0.7635113909211559    0.2336917587878816 Nb
   0.6530424606129663    0.9256735530833182    0.2336917587878816 Nb
   0.7341235416940475    0.0337816611914263    0.2336917587878816 Nb
   0.8152046227751285    0.1418897692995344    0.2336917587878816 Nb
   0.8962857038562093    0.2499978774076425    0.2336917587878816 Nb
   0.9773667849372908    0.3581059855157507    0.2336917587878817 Nb
   0.0584478660183719    0.4662140936238587    0.2336917587878817 Nb
   0.9233127308832367    0.9527005801103453    0.2336917587878816 Nb
   0.0043938119643178    0.0608086882184534    0.2336917587878816 Nb
   0.0854748930453986    0.1689167963265615    0.2336917587878817 Nb
   0.1322962686283526    0.5236746404565682    0.7671208852038270 Bi
   0.1322962686283527    0.3236746404565681    0.7671208852038270 Bi
   0.1322962686283526    0.1236746404565681    0.7671208852038270 Bi
   0.1322962686283527    0.9236746404565681    0.7671208852038270 Bi
   0.1322962686283527    0.7236746404565679    0.7671208852038270 Bi
   0.3322962686283528    0.5236746404565682    0.7671208852038270 Bi
   0.3322962686283529    0.3236746404565681    0.7671208852038270 Bi
   0.3322962686283527    0.1236746404565681    0.7671208852038270 Bi
   0.3322962686283527    0.9236746404565681    0.7671208852038270 Bi
   0.3322962686283528    0.7236746404565679    0.7671208852038270 Bi
   0.5322962686283528    0.5236746404565682    0.7671208852038270 Bi
   0.5322962686283530    0.3236746404565681    0.7671208852038270 Bi
   0.5322962686283529    0.1236746404565681    0.7671208852038270 Bi
   0.5322962686283528    0.9236746404565681    0.7671208852038270 Bi
   0.5322962686283530    0.7236746404565679    0.7671208852038272 Bi
   0.7322962686283528    0.5236746404565682    0.7671208852038272 Bi
   0.7322962686283532    0.3236746404565681    0.7671208852038270 Bi
   0.7322962686283528    0.1236746404565681    0.7671208852038270 Bi
   0.7322962686283528    0.9236746404565681    0.7671208852038270 Bi
   0.7322962686283532    0.7236746404565679    0.7671208852038272 Bi
   0.9322962686283527    0.5236746404565682    0.7671208852038272 Bi
   0.9322962686283532    0.3236746404565681    0.7671208852038272 Bi
   0.9322962686283529    0.1236746404565681    0.7671208852038270 Bi
   0.9322962686283527    0.9236746404565681    0.7671208852038270 Bi
   0.9322962686283531    0.7236746404565679    0.7671208852038272 Bi
   0.9970542479763416    0.5908360412516462    0.6873709670584141 Bi
   0.9970542479763417    0.3908360412516463    0.6873709670584141 Bi
   0.9970542479763416    0.1908360412516463    0.6873709670584141 Bi
   0.9970542479763416    0.9908360412516463    0.6873709670584139 Bi
   0.9970542479763416    0.7908360412516462    0.6873709670584141 Bi
   0.1970542479763416    0.5908360412516462    0.6873709670584141 Bi
   0.1970542479763417    0.3908360412516463    0.6873709670584141 Bi
   0.1970542479763416    0.1908360412516463    0.6873709670584141 Bi
   0.1970542479763417    0.9908360412516463    0.6873709670584141 Bi
   0.1970542479763417    0.7908360412516462    0.6873709670584141 Bi
   0.3970542479763416    0.5908360412516462    0.6873709670584141 Bi
   0.3970542479763416    0.3908360412516463    0.6873709670584141 Bi
   0.3970542479763418    0.1908360412516463    0.6873709670584141 Bi
   0.3970542479763415    0.9908360412516463    0.6873709670584141 Bi
   0.3970542479763418    0.7908360412516462    0.6873709670584141 Bi
   0.5970542479763420    0.5908360412516462    0.6873709670584141 Bi
   0.5970542479763419    0.3908360412516463    0.6873709670584141 Bi
   0.5970542479763417    0.1908360412516463    0.6873709670584141 Bi
   0.5970542479763418    0.9908360412516463    0.6873709670584141 Bi
   0.5970542479763419    0.7908360412516462    0.6873709670584139 Bi
   0.7970542479763419    0.5908360412516462    0.6873709670584139 Bi
   0.7970542479763417    0.3908360412516463    0.6873709670584141 Bi
   0.7970542479763417    0.1908360412516463    0.6873709670584141 Bi
   0.7970542479763418    0.9908360412516463    0.6873709670584141 Bi
   0.7970542479763421    0.7908360412516462    0.6873709670584139 Bi
   0.9943867366936952    0.5944661541018826    0.5665155440360311 Bi
   0.9943867366936950    0.3944661541018825    0.5665155440360311 Bi
   0.9943867366936950    0.1944661541018825    0.5665155440360311 Bi
   0.9943867366936950    0.9944661541018824    0.5665155440360311 Bi
   0.9943867366936952    0.7944661541018824    0.5665155440360311 Bi
   0.1943867366936952    0.5944661541018826    0.5665155440360311 Bi
   0.1943867366936952    0.3944661541018825    0.5665155440360311 Bi
   0.1943867366936951    0.1944661541018825    0.5665155440360311 Bi
   0.1943867366936951    0.9944661541018824    0.5665155440360311 Bi
   0.1943867366936952    0.7944661541018824    0.5665155440360311 Bi
   0.3943867366936950    0.5944661541018826    0.5665155440360311 Bi
   0.3943867366936951    0.3944661541018825    0.5665155440360311 Bi
   0.3943867366936952    0.1944661541018825    0.5665155440360311 Bi
   0.3943867366936951    0.9944661541018824    0.5665155440360311 Bi
   0.3943867366936955    0.7944661541018824    0.5665155440360311 Bi
   0.5943867366936954    0.5944661541018826    0.5665155440360311 Bi
   0.5943867366936952    0.3944661541018825    0.5665155440360311 Bi
   0.5943867366936952    0.1944661541018825    0.5665155440360311 Bi
   0.5943867366936951    0.9944661541018824    0.5665155440360311 Bi
   0.5943867366936951    0.7944661541018824    0.5665155440360311 Bi
   0.7943867366936953    0.5944661541018826    0.5665155440360311 Bi
   0.7943867366936952    0.3944661541018825    0.5665155440360311 Bi
   0.7943867366936954    0.1944661541018825    0.5665155440360311 Bi
   0.7943867366936953    0.9944661541018824    0.5665155440360311 Bi
   0.7943867366936953    0.7944661541018824    0.5665155440360311 Bi
   0.0603796884857307    0.6606172799071865    0.4870641414761426 Bi
   0.0603796884857308    0.4606172799071865    0.4870641414761426 Bi
   0.0603796884857307    0.2606172799071865    0.4870641414761426 Bi
   0.0603796884857308    0.0606172799071865    0.4870641414761426 Bi
   0.0603796884857309    0.8606172799071864    0.4870641414761426 Bi
   0.2603796884857310    0.6606172799071865    0.4870641414761426 Bi
   0.2603796884857309    0.4606172799071865    0.4870641414761426 Bi
   0.2603796884857309    0.2606172799071865    0.4870641414761426 Bi
   0.2603796884857308    0.0606172799071865    0.4870641414761426 Bi
   0.2603796884857308    0.8606172799071864    0.4870641414761427 Bi
   0.4603796884857307    0.6606172799071865    0.4870641414761427 Bi
   0.4603796884857309    0.4606172799071865    0.4870641414761426 Bi
   0.4603796884857310    0.2606172799071865    0.4870641414761426 Bi
   0.4603796884857309    0.0606172799071865    0.4870641414761426 Bi
   0.4603796884857307    0.8606172799071864    0.4870641414761427 Bi
   0.6603796884857309    0.6606172799071865    0.4870641414761427 Bi
   0.6603796884857309    0.4606172799071865    0.4870641414761427 Bi
   0.6603796884857307    0.2606172799071865    0.4870641414761426 Bi
   0.6603796884857308    0.0606172799071865    0.4870641414761426 Bi
   0.6603796884857311    0.8606172799071864    0.4870641414761426 Bi
   0.8603796884857310    0.6606172799071865    0.4870641414761426 Bi
   0.8603796884857311    0.4606172799071865    0.4870641414761427 Bi
   0.8603796884857307    0.2606172799071865    0.4870641414761427 Bi
   0.8603796884857308    0.0606172799071865    0.4870641414761426 Bi
   0.8603796884857309    0.8606172799071864    0.4870641414761426 Bi
   0.0494460364268104    0.5652835830951106    0.2000427878291580 Se
   0.1305271175078914    0.6733916912032191    0.2000427878291580 Se
   0.2116081985889724    0.7814997993113271    0.2000427878291580 Se
   0.0764730634538374    0.2679862857978135    0.2000427878291580 Se
   0.1575541445349184    0.3760943939059217    0.2000427878291580 Se
   0.2386352256159995    0.4842025020140299    0.2000427878291580 Se
   0.3197163066970806    0.5923106101221380    0.2000427878291580 Se
   0.4007973877781618    0.7004187182302460    0.2000427878291580 Se
   0.4818784688592427    0.8085268263383539    0.2000427878291580 Se
   0.0224190093997832    0.8625808803924083    0.2000427878291580 Se
   0.1035000904808644    0.9706889885005162    0.2000427878291580 Se
   0.1845811715619455    0.0787970966086244    0.2000427878291580 Se
   0.2656622526430265    0.1869052047167325    0.2000427878291580 Se
   0.3467433337241076    0.2950133128248405    0.2000427878291580 Se
   0.4278244148051887    0.4031214209329488    0.2000427878291580 Se
   0.5089054958862698    0.5112295290410568    0.2000427878291580 Se
   0.5899865769673510    0.6193376371491647    0.2000427878291580 Se
   0.6710676580484319    0.7274457452572731    0.2000427878291580 Se
   0.7521487391295134    0.8355538533653811    0.2000427878291580 Se
   0.2926892796700535    0.8896079074194353    0.2000427878291580 Se
   0.3737703607511346    0.9977160155275433    0.2000427878291580 Se
   0.4548514418322155    0.1058241236356514    0.2000427878291580 Se
   0.5359325229132968    0.2139322317437595    0.2000427878291580 Se
   0.6170136039943780    0.3220403398518676    0.2000427878291580 Se
   0.6980946850754591    0.4301484479599756    0.2000427878291580 Se
   0.7791757661565403    0.5382565560680839    0.2000427878291580 Se
   0.8602568472376212    0.6463646641761919    0.2000427878291580 Se
   0.9413379283187024    0.7544727722843000    0.2000427878291580 Se
   0.5629595499403240    0.9166349344464623    0.2000427878291580 Se
   0.6440406310214049    0.0247430425545703    0.2000427878291580 Se
   0.7251217121024860    0.1328511506626784    0.2000427878291580 Se
   0.8062027931835672    0.2409592587707866    0.2000427878291580 Se
   0.8872838742646483    0.3490673668788946    0.2000427878291580 Se
   0.9683649553457294    0.4571754749870028    0.2000427878291580 Se
   0.8332298202105941    0.9436619614734892    0.2000427878291580 Se
   0.9143109012916754    0.0517700695815974    0.2000427878291580 Se
   0.9953919823727563    0.1598781776897055    0.2000427878291580 Se
   0.0399227808457299    0.6648077361982223    0.3229896502366214 Se
   0.1210038619268111    0.7729158443063304    0.3229896502366214 Se
   0.2020849430078923    0.8810239524144388    0.3229896502366214 Se
   0.0669498078727572    0.3675104389009251    0.3229896502366213 Se
   0.1480308889538382    0.4756185470090333    0.3229896502366214 Se
   0.2291119700349192    0.5837266551171412    0.3229896502366214 Se
   0.3101930511160003    0.6918347632252495    0.3229896502366214 Se
   0.3912741321970816    0.7999428713333576    0.3229896502366214 Se
   0.4723552132781627    0.9080509794414657    0.3229896502366214 Se
   0.0128957538187031    0.9621050334955197    0.3229896502366213 Se
   0.0939768348997842    0.0702131416036278    0.3229896502366213 Se
   0.1750579159808652    0.1783212497117359    0.3229896502366213 Se
   0.2561389970619463    0.2864293578198440    0.3229896502366213 Se
   0.3372200781430274    0.3945374659279520    0.3229896502366214 Se
   0.4183011592241085    0.5026455740360604    0.3229896502366214 Se
   0.4993822403051896    0.6107536821441683    0.3229896502366214 Se
   0.5804633213862709    0.7188617902522764    0.3229896502366214 Se
   0.6615444024673518    0.8269698983603844    0.3229896502366214 Se
   0.7426254835484331    0.9350780064684927    0.3229896502366214 Se
   0.2831660240889733    0.9891320605225467    0.3229896502366213 Se
   0.3642471051700544    0.0972401686306548    0.3229896502366213 Se
   0.4453281862511355    0.2053482767387629    0.3229896502366214 Se
   0.5264092673322166    0.3134563848468709    0.3229896502366214 Se
   0.6074903484132979    0.4215644929549790    0.3229896502366214 Se
   0.6885714294943788    0.5296726010630872    0.3229896502366214 Se
   0.7696525105754600    0.6377807091711953    0.3229896502366214 Se
   0.8507335916565409    0.7458888172793035    0.3229896502366214 Se
   0.9318146727376221    0.8539969253874116    0.3229896502366214 Se
   0.5534362943592436    0.0161590875495737    0.3229896502366214 Se
   0.6345173754403248    0.1242671956576818    0.3229896502366214 Se
   0.7155984565214059    0.2323753037657900    0.3229896502366214 Se
   0.7966795376024869    0.3404834118738980    0.3229896502366214 Se
   0.8777606186835680    0.4485915199820061    0.3229896502366214 Se
   0.9588416997646494    0.5566996280901143    0.3229896502366214 Se
   0.8237065646295141    0.0431861145766008    0.3229896502366214 Se
   0.9047876457105950    0.1512942226847089    0.3229896502366214 Se
   0.9858687267916760    0.2594023307928170    0.3229896502366213 Se
   0.0494021197502015    0.5653396418364406    0.2673459347889960 Se
   0.1304832008312825    0.6734477499445488    0.2673459347889960 Se
   0.2115642819123636    0.7815558580526568    0.2673459347889959 Se
   0.0764291467772285    0.2680423445391433    0.2673459347889960 Se
   0.1575102278583097    0.3761504526472516    0.2673459347889960 Se
   0.2385913089393907    0.4842585607553594    0.2673459347889960 Se
   0.3196723900204717    0.5923666688634678    0.2673459347889960 Se
   0.4007534711015531    0.7004747769715759    0.2673459347889959 Se
   0.4818345521826337    0.8085828850796838    0.2673459347889960 Se
   0.0223750927231745    0.8626369391337378    0.2673459347889960 Se
   0.1034561738042556    0.9707450472418461    0.2673459347889960 Se
   0.1845372548853367    0.0788531553499542    0.2673459347889960 Se
   0.2656183359664178    0.1869612634580623    0.2673459347889960 Se
   0.3466994170474990    0.2950693715661704    0.2673459347889960 Se
   0.4277804981285800    0.4031774796742785    0.2673459347889960 Se
   0.5088615792096610    0.5112855877823866    0.2673459347889959 Se
   0.5899426602907422    0.6193936958904946    0.2673459347889959 Se
   0.6710237413718231    0.7275018039986028    0.2673459347889960 Se
   0.7521048224529042    0.8356099121067110    0.2673459347889960 Se
   0.2926453629934447    0.8896639661607648    0.2673459347889959 Se
   0.3737264440745258    0.9977720742688732    0.2673459347889960 Se
   0.4548075251556070    0.1058801823769812    0.2673459347889960 Se
   0.5358886062366881    0.2139882904850893    0.2673459347889960 Se
   0.6169696873177691    0.3220963985931974    0.2673459347889960 Se
   0.6980507683988502    0.4302045067013055    0.2673459347889959 Se
   0.7791318494799311    0.5383126148094136    0.2673459347889960 Se
   0.8602129305610124    0.6464207229175217    0.2673459347889960 Se
   0.9412940116420936    0.7545288310256298    0.2673459347889960 Se
   0.5629156332637151    0.9166909931877918    0.2673459347889960 Se
   0.6439967143447962    0.0247991012959001    0.2673459347889960 Se
   0.7250777954258771    0.1329072094040083    0.2673459347889960 Se
   0.8061588765069584    0.2410153175121163    0.2673459347889959 Se
   0.8872399575880395    0.3491234256202244    0.2673459347889959 Se
   0.9683210386691207    0.4572315337283325    0.2673459347889960 Se
   0.8331859035339855    0.9437180202148191    0.2673459347889960 Se
   0.9142669846150665    0.0518261283229272    0.2673459347889959 Se
   0.9953480656961474    0.1599342364310353    0.2673459347889960 Se
   0.0398867909176228    0.6648651040233957    0.3902928416568580 Se
   0.1209678719987039    0.7729732121315041    0.3902928416568581 Se
   0.2020489530797852    0.8810813202396119    0.3902928416568581 Se
   0.0669138179446498    0.3675678067260986    0.3902928416568580 Se
   0.1479948990257308    0.4756759148342068    0.3902928416568580 Se
   0.2290759801068119    0.5837840229423149    0.3902928416568581 Se
   0.3101570611878930    0.6918921310504230    0.3902928416568581 Se
   0.3912381422689741    0.8000002391585311    0.3902928416568581 Se
   0.4723192233500550    0.9081083472666394    0.3902928416568581 Se
   0.0128597638905958    0.9621624013206932    0.3902928416568581 Se
   0.0939408449716768    0.0702705094288014    0.3902928416568580 Se
   0.1750219260527580    0.1783786175369094    0.3902928416568580 Se
   0.2561030071338390    0.2864867256450175    0.3902928416568580 Se
   0.3371840882149202    0.3945948337531256    0.3902928416568580 Se
   0.4182651692960012    0.5027029418612339    0.3902928416568581 Se
   0.4993462503770822    0.6108110499693419    0.3902928416568581 Se
   0.5804273314581631    0.7189191580774498    0.3902928416568581 Se
   0.6615084125392445    0.8270272661855581    0.3902928416568581 Se
   0.7425894936203258    0.9351353742936661    0.3902928416568580 Se
   0.2831300341608660    0.9891894283477203    0.3902928416568580 Se
   0.3642111152419471    0.0972975364558284    0.3902928416568580 Se
   0.4452921963230284    0.2054056445639365    0.3902928416568580 Se
   0.5263732774041094    0.3135137526720446    0.3902928416568581 Se
   0.6074543584851904    0.4216218607801526    0.3902928416568581 Se
   0.6885354395662712    0.5297299688882607    0.3902928416568581 Se
   0.7696165206473524    0.6378380769963691    0.3902928416568581 Se
   0.8506976017284337    0.7459461851044770    0.3902928416568581 Se
   0.9317786828095147    0.8540542932125850    0.3902928416568581 Se
   0.5534003044311363    0.0162164553747473    0.3902928416568580 Se
   0.6344813855122176    0.1243245634828554    0.3902928416568580 Se
   0.7155624665932984    0.2324326715909635    0.3902928416568581 Se
   0.7966435476743796    0.3405407796990715    0.3902928416568581 Se
   0.8777246287554605    0.4486488878071797    0.3902928416568581 Se
   0.9588057098365419    0.5567569959152878    0.3902928416568581 Se
   0.8236705747014066    0.0432434824017744    0.3902928416568581 Se
   0.9047516557824875    0.1513515905098824    0.3902928416568581 Se
   0.9858327368635688    0.2594596986179905    0.3902928416568580 Se
   0.9992740334041094    0.5906991160657544    0.7999572121708419 Se
   0.9992740334041095    0.3906991160657544    0.7999572121708419 Se
   0.9992740334041094    0.1906991160657545    0.7999572121708420 Se
   0.9992740334041094    0.9906991160657544    0.7999572121708420 Se
   0.9992740334041094    0.7906991160657544    0.7999572121708419 Se
   0.1992740334041095    0.5906991160657544    0.7999572121708419 Se
   0.1992740334041095    0.3906991160657544    0.7999572121708419 Se
   0.1992740334041094    0.1906991160657545    0.7999572121708419 Se
   0.1992740334041095    0.9906991160657544    0.7999572121708420 Se
   0.1992740334041095    0.7906991160657544    0.7999572121708419 Se
   0.3992740334041095    0.5906991160657544    0.7999572121708419 Se
   0.3992740334041096    0.3906991160657544    0.7999572121708419 Se
   0.3992740334041095    0.1906991160657545    0.7999572121708419 Se
   0.3992740334041095    0.9906991160657544    0.7999572121708419 Se
   0.3992740334041096    0.7906991160657544    0.7999572121708419 Se
   0.5992740334041097    0.5906991160657544    0.7999572121708419 Se
   0.5992740334041095    0.3906991160657544    0.7999572121708419 Se
   0.5992740334041096    0.1906991160657545    0.7999572121708419 Se
   0.5992740334041095    0.9906991160657544    0.7999572121708419 Se
   0.5992740334041097    0.7906991160657544    0.7999572121708419 Se
   0.7992740334041097    0.5906991160657544    0.7999572121708419 Se
   0.7992740334041095    0.3906991160657544    0.7999572121708419 Se
   0.7992740334041093    0.1906991160657545    0.7999572121708419 Se
   0.7992740334041095    0.9906991160657544    0.7999572121708419 Se
   0.7992740334041097    0.7906991160657544    0.7999572121708419 Se
   0.0646341936447219    0.6566283885536679    0.7271899584285132 Se
   0.0646341936447220    0.4566283885536677    0.7271899584285132 Se
   0.0646341936447220    0.2566283885536678    0.7271899584285132 Se
   0.0646341936447219    0.0566283885536677    0.7271899584285132 Se
   0.0646341936447220    0.8566283885536675    0.7271899584285133 Se
   0.2646341936447219    0.6566283885536679    0.7271899584285133 Se
   0.2646341936447220    0.4566283885536677    0.7271899584285132 Se
   0.2646341936447220    0.2566283885536678    0.7271899584285132 Se
   0.2646341936447220    0.0566283885536677    0.7271899584285132 Se
   0.2646341936447221    0.8566283885536675    0.7271899584285133 Se
   0.4646341936447221    0.6566283885536679    0.7271899584285133 Se
   0.4646341936447220    0.4566283885536677    0.7271899584285133 Se
   0.4646341936447219    0.2566283885536678    0.7271899584285132 Se
   0.4646341936447220    0.0566283885536677    0.7271899584285132 Se
   0.4646341936447222    0.8566283885536675    0.7271899584285133 Se
   0.6646341936447222    0.6566283885536679    0.7271899584285133 Se
   0.6646341936447222    0.4566283885536677    0.7271899584285133 Se
   0.6646341936447220    0.2566283885536678    0.7271899584285133 Se
   0.6646341936447223    0.0566283885536677    0.7271899584285132 Se
   0.6646341936447223    0.8566283885536675    0.7271899584285133 Se
   0.8646341936447224    0.6566283885536679    0.7271899584285133 Se
   0.8646341936447222    0.4566283885536677    0.7271899584285133 Se
   0.8646341936447220    0.2566283885536678    0.7271899584285133 Se
   0.8646341936447223    0.0566283885536677    0.7271899584285133 Se
   0.8646341936447223    0.8566283885536675    0.7271899584285133 Se
   0.1311415887078976    0.5239831887387612    0.6545040291068936 Se
   0.1311415887078977    0.3239831887387610    0.6545040291068936 Se
   0.1311415887078977    0.1239831887387609    0.6545040291068936 Se
   0.1311415887078977    0.9239831887387610    0.6545040291068936 Se
   0.1311415887078977    0.7239831887387610    0.6545040291068936 Se
   0.3311415887078977    0.5239831887387612    0.6545040291068936 Se
   0.3311415887078978    0.3239831887387610    0.6545040291068936 Se
   0.3311415887078977    0.1239831887387609    0.6545040291068936 Se
   0.3311415887078978    0.9239831887387610    0.6545040291068936 Se
   0.3311415887078977    0.7239831887387610    0.6545040291068936 Se
   0.5311415887078978    0.5239831887387612    0.6545040291068936 Se
   0.5311415887078977    0.3239831887387610    0.6545040291068936 Se
   0.5311415887078977    0.1239831887387609    0.6545040291068936 Se
   0.5311415887078977    0.9239831887387610    0.6545040291068936 Se
   0.5311415887078978    0.7239831887387610    0.6545040291068936 Se
   0.7311415887078977    0.5239831887387612    0.6545040291068936 Se
   0.7311415887078980    0.3239831887387610    0.6545040291068936 Se
   0.7311415887078977    0.1239831887387609    0.6545040291068936 Se
   0.7311415887078980    0.9239831887387610    0.6545040291068936 Se
   0.7311415887078980    0.7239831887387610    0.6545040291068936 Se
   0.9311415887078979    0.5239831887387612    0.6545040291068936 Se
   0.9311415887078981    0.3239831887387610    0.6545040291068936 Se
   0.9311415887078978    0.1239831887387609    0.6545040291068936 Se
   0.9311415887078976    0.9239831887387610    0.6545040291068936 Se
   0.9311415887078980    0.7239831887387610    0.6545040291068936 Se
   0.0605354009027093    0.6603923793151103    0.5991574626168229 Se
   0.0605354009027093    0.4603923793151102    0.5991574626168229 Se
   0.0605354009027093    0.2603923793151102    0.5991574626168229 Se
   0.0605354009027093    0.0603923793151102    0.5991574626168229 Se
   0.0605354009027093    0.8603923793151103    0.5991574626168229 Se
   0.2605354009027095    0.6603923793151103    0.5991574626168229 Se
   0.2605354009027095    0.4603923793151102    0.5991574626168229 Se
   0.2605354009027093    0.2603923793151102    0.5991574626168229 Se
   0.2605354009027094    0.0603923793151102    0.5991574626168229 Se
   0.2605354009027094    0.8603923793151103    0.5991574626168229 Se
   0.4605354009027094    0.6603923793151103    0.5991574626168229 Se
   0.4605354009027093    0.4603923793151102    0.5991574626168229 Se
   0.4605354009027094    0.2603923793151102    0.5991574626168229 Se
   0.4605354009027094    0.0603923793151102    0.5991574626168229 Se
   0.4605354009027094    0.8603923793151103    0.5991574626168229 Se
   0.6605354009027096    0.6603923793151103    0.5991574626168229 Se
   0.6605354009027096    0.4603923793151102    0.5991574626168229 Se
   0.6605354009027093    0.2603923793151102    0.5991574626168229 Se
   0.6605354009027096    0.0603923793151102    0.5991574626168229 Se
   0.6605354009027095    0.8603923793151103    0.5991574626168229 Se
   0.8605354009027097    0.6603923793151103    0.5991574626168229 Se
   0.8605354009027095    0.4603923793151102    0.5991574626168229 Se
   0.8605354009027094    0.2603923793151102    0.5991574626168229 Se
   0.8605354009027094    0.0603923793151102    0.5991574626168229 Se
   0.8605354009027099    0.8603923793151103    0.5991574626168229 Se
   0.1272781678734462    0.5279657013259429    0.5267847356324312 Se
   0.1272781678734463    0.3279657013259429    0.5267847356324312 Se
   0.1272781678734463    0.1279657013259429    0.5267847356324312 Se
   0.1272781678734463    0.9279657013259429    0.5267847356324312 Se
   0.1272781678734463    0.7279657013259428    0.5267847356324312 Se
   0.3272781678734464    0.5279657013259429    0.5267847356324312 Se
   0.3272781678734464    0.3279657013259429    0.5267847356324312 Se
   0.3272781678734463    0.1279657013259429    0.5267847356324312 Se
   0.3272781678734463    0.9279657013259429    0.5267847356324312 Se