{'film_sl_vectors': array([[ 20.85413919,   0.        ,   0.        ],
       [ 10.4270696 , -18.06021431,  -0.        ]]), 'substrate_sl_vectors': array([[  1.73178539,  20.99678199,   0.        ],
       [-17.31785391,  11.99816114,   0.        ]]), 'film_vectors': array([[ 4.17082784,  0.        ,  0.        ],
       [-2.08541392,  3.61204286,  0.        ]]), 'substrate_vectors': array([[ 3.46357078,  0.        ,  0.        ],
       [-1.73178539,  2.99954028,  0.        ]]), 'film_transformation': array([[5., 0.],
       [0., 5.]]), 'substrate_transformation': array([[ 1., 11.],
       [ 0., 37.]]), 'strain': Strain([[1.03114669e-02 5.35108427e-12 0.00000000e+00]
 [5.35108427e-12 1.03114669e-02 0.00000000e+00]
 [0.00000000e+00 0.00000000e+00 0.00000000e+00]]), 'von_mises_strain': 0.006874311278037874, 'termination': ('default', 'default'), 'film_thickness': 1, 'substrate_thickness': 1, 'signed_angle': 85.2849960457514, 'decomposition_angle': 85.2849960460518}