Nb72 Bi100 Se294
1.0
  20.7814246906816678    0.0000000000000000    0.0000000000000013
  10.3907123443432603   17.9972417095394448    0.0000000000000013
   0.0000000000000000    0.0000000000000000   49.9893053307188922
Nb Bi Se
72 100 294
direct
   0.7843997286876566    0.6439710934848496    0.3576536942229168 Nb
   0.6257554906654685    0.6445669508887761    0.3555488395155909 Nb
   0.4577954381508687    0.6420556425768669    0.3573402193426733 Nb
   0.2955702874021065    0.6384727204850781    0.3572601475129483 Nb
   0.1223557686725806    0.6407336691333556    0.3568408242927298 Nb
   0.9552980776747604    0.6448809506128982    0.3557066925643079 Nb
   0.7911271157128542    0.4700653981139474    0.3554787097139158 Nb
   0.6271584832589312    0.4688339133742851    0.3568624801819664 Nb
   0.4573117911945477    0.4740756544965682    0.3572926821764217 Nb
   0.2943248563471104    0.4681560147705015    0.3553447115300089 Nb
   0.1278830520369444    0.4707744477742214    0.3571297789348117 Nb
   0.9569417944316088    0.4723440413180623    0.3570449384732010 Nb
   0.7896245985338761    0.3089627255908305    0.3560636092873804 Nb
   0.6234061967562790    0.3080566161740815    0.3560407349617833 Nb
   0.4673195808473267    0.3034416636717506    0.3567787624711097 Nb
   0.2933377746540033    0.3069531060567017    0.3563100804685693 Nb
   0.1270623161853718    0.3052015026946463    0.3555907969243995 Nb
   0.9595972047236569    0.3070427401196801    0.3563066938004707 Nb
   0.7898877052753693    0.1422033729291566    0.3564363694378080 Nb
   0.6234693007425565    0.1462216880524733    0.3549724644915154 Nb
   0.4563716854162363    0.1432741417107985    0.3578573012615453 Nb
   0.2896457074688452    0.1415648789045315    0.3571082280868227 Nb
   0.1268522939294427    0.1405614210052343    0.3576990998699450 Nb
   0.9553746250398296    0.1393222086403492    0.3575369642507501 Nb
   0.7910957239791684    0.9730903917804575    0.3577615907278253 Nb
   0.6256913423777523    0.9742257337680919    0.3564372685429880 Nb
   0.4564082718915985    0.9763958340289680    0.3550979448583083 Nb
   0.2899991692037241    0.9767291880692952    0.3574113003693835 Nb
   0.1257040039650062    0.9713982833078002    0.3575184011689545 Nb
   0.9537189199530778    0.9750362637046910    0.3569840062957565 Nb
   0.7880067230404152    0.8065485203400748    0.3560932072845931 Nb
   0.6230231964250977    0.8091474485098721    0.3569429410339777 Nb
   0.4594113442248061    0.8081871627158055    0.3570344593263435 Nb
   0.2918241595145470    0.8086939547383942    0.3563837598582153 Nb
   0.1246036095755248    0.8052878393086575    0.3557075034431278 Nb
   0.9596247773911112    0.8076995002527496    0.3577357227685852 Nb
   0.7860478361113067    0.6435353252006528    0.2358678786893398 Nb
   0.6264699734160598    0.6436210303808246    0.2334986933060189 Nb
   0.4573671207786599    0.6427353319786387    0.2330700262279903 Nb
   0.2908737446680268    0.6359252364503660    0.2330816027246428 Nb
   0.1286703333210745    0.6435447540627757    0.2352722686428859 Nb
   0.9580109146320341    0.6458572711989454    0.2330197388063775 Nb
   0.7947178560571195    0.4670066843585729    0.2312747373532391 Nb
   0.6207792586137865    0.4754491852734008    0.2335931741262254 Nb
   0.4641768039541089    0.4712071570073268    0.2339203196387042 Nb
   0.2941286572306269    0.4744648801791803    0.2351399295280962 Nb
   0.1214381528179517    0.4731065443183995    0.2354547836041377 Nb
   0.9633955126274583    0.4708321705892451    0.2354477342298263 Nb
   0.7979216113331599    0.3005951593356008    0.2340660998583788 Nb
   0.6320479802092699    0.2962332018467858    0.2342104389759101 Nb
   0.4568558857837164    0.3113353946058616    0.2322188978550909 Nb
   0.2925847753437880    0.3060786906223750    0.2332205955772380 Nb
   0.1233390474028525    0.3109985776262854    0.2357221068392052 Nb
   0.9595892566432714    0.3053368094885627    0.2337998777502918 Nb
   0.7861651030780781    0.1381540505989448    0.2342708718068180 Nb
   0.6298027295705899    0.1390910005182117    0.2348495137021913 Nb
   0.4579728793633707    0.1364658439131710    0.2340866338425018 Nb
   0.2869263193962783    0.1382762210241432    0.2323179599853474 Nb
   0.1257029126204054    0.1457949476918093    0.2316147467234876 Nb
   0.9616045525454432    0.1324909438144394    0.2316938114948248 Nb
   0.7876596070335715    0.9748772570961418    0.2349365217904661 Nb
   0.6256426415004606    0.9773441789955331    0.2332191601686104 Nb
   0.4582574480154107    0.9739961660589892    0.2354088480745196 Nb
   0.2892113449754916    0.9786940983122511    0.2339500990367979 Nb
   0.1281822437513875    0.9756642175694235    0.2330453748478041 Nb
   0.9600622153050512    0.9744295930362414    0.2333085380149742 Nb
   0.7955206742647897    0.8094873865393147    0.2349202636249000 Nb
   0.6215339641219754    0.8073603277511646    0.2347854804917140 Nb
   0.4550852281465150    0.8153783821728224    0.2335561217460497 Nb
   0.2937205952036073    0.8052510263871069    0.2345651254633631 Nb
   0.1305070937323785    0.8075309203899689    0.2342551708181339 Nb
   0.9563947409696484    0.8053851514179408    0.2337691076138220 Nb
   0.1336169959432282    0.5320482408513795    0.7655137210795639 Bi
   0.1348075153428021    0.3274681991540676    0.7694316434116982 Bi
   0.1347059216121018    0.1301130677642537    0.7672107202797569 Bi
   0.1345813929001321    0.9311523193793361    0.7664286136670123 Bi
   0.1318230188197073    0.7263754988465446    0.7650047654875235 Bi
   0.3290049690038306    0.5299850845569049    0.7644861395426402 Bi
   0.3359577225297538    0.3299959116338403    0.7658192169437523 Bi
   0.3297289212645837    0.1320329055391569    0.7679915525099991 Bi
   0.3301168949012110    0.9347443648876979    0.7646913638757247 Bi
   0.3405383492183390    0.7275959461610478    0.7657576760262422 Bi
   0.5331332385940882    0.5295417601821891    0.7659777343505896 Bi
   0.5317288639206813    0.3260141702145088    0.7667648172902932 Bi
   0.5381628002592160    0.1252748413242877    0.7700692363466484 Bi
   0.5326043457997788    0.9311156689920307    0.7675685402784121 Bi
   0.5277970386894676    0.7302081436590553    0.7690958678886637 Bi
   0.7340453234250586    0.5287308551982399    0.7660278902914509 Bi
   0.7369980915153722    0.3276641157487334    0.7670821862860245 Bi
   0.7417611626492195    0.1275070893049400    0.7667056974074331 Bi
   0.7375114991292406    0.9281917618600466    0.7691588541800806 Bi
   0.7387229704756113    0.7289569761297280    0.7664334710937764 Bi
   0.9299181925394464    0.5343965721663823    0.7659385439496914 Bi
   0.9354273531473697    0.3238638303412726    0.7651383862920222 Bi
   0.9378872953858838    0.1289416212041372    0.7699732574454209 Bi
   0.9322486807330908    0.9305402794777508    0.7655311428544868 Bi
   0.9300610248598571    0.7361390521910280    0.7681092434162012 Bi
   1.0002870677457374    0.5911395472012785    0.6870074382882952 Bi
   1.0015697631269036    0.3969003893192408    0.6865090781001052 Bi
   1.0012975496018155    0.1915104548317184    0.6886193160366949 Bi
   1.0014409347542013    0.9972036789195766    0.6875134167748450 Bi
   1.0010991381834164    0.7964696823272142    0.6874814189084665 Bi
   0.1938007448695500    0.5988428623269874    0.6863249911121798 Bi
   0.1891728147836761    0.3990305905350837    0.6854226159443771 Bi
   0.2019326398979548    0.1963404740806333    0.6878520485144566 Bi
   0.2018255817831127    0.9910785496925812    0.6869288601961260 Bi
   0.1920166936651555    0.7973941641661583    0.6885263669744612 Bi
   0.3939745111300466    0.5916128423276177    0.6881227050050198 Bi
   0.3999537643740749    0.3939821737733736    0.6878418828098172 Bi
   0.3989704310115883    0.1928611570231884    0.6868661051489562 Bi
   0.4032682493946725    0.9942180292040592    0.6884817664356316 Bi
   0.3998077723950110    0.7969630103662583    0.6865327369852444 Bi
   0.5981824917119023    0.5967127308576373    0.6851134314175138 Bi
   0.6015439387699513    0.4049662645626819    0.6861471354495231 Bi
   0.6029872575275496    0.1941835882883433    0.6859507826782848 Bi
   0.5972384449458769    0.9963247033409929    0.6864984007019350 Bi
   0.6015592667693418    0.7926386039746832    0.6870275024664957 Bi
   0.7956638650549962    0.5991214758376747    0.6863607549265672 Bi
   0.8014750937993833    0.3945756409219136    0.6855395303949142 Bi
   0.8032655036434750    0.1930525534669858    0.6891711511028870 Bi
   0.7984485455814573    0.9949664783318146    0.6868386748070967 Bi
   0.7982871190524272    0.8007372039840739    0.6879852137391851 Bi
   0.9922614265084302    0.6045957780365517    0.5643656265961680 Bi
   0.9963564877200543    0.3962654349005294    0.5679950315948057 Bi
   0.9898302483147127    0.2045150312315948    0.5662251332766012 Bi
   0.9928535396057787    0.9999472345762881    0.5661774019464477 Bi
   0.9928918929487873    0.7963598630059606    0.5688429989656472 Bi
   0.1994355329386767    0.5970797169312582    0.5675003342219124 Bi
   0.1986095211277292    0.3967071048759818    0.5696948489087469 Bi
   0.1966893630824906    0.2022287126145675    0.5662257547072272 Bi
   0.1971912550582638    1.0004523808188917    0.5628232976641944 Bi
   0.1960372829099104    0.7998118602103362    0.5676606656883249 Bi
   0.3975216779624850    0.5952759058075388    0.5664170005848069 Bi
   0.3971350644915983    0.4022636335591381    0.5665354188942363 Bi
   0.3982493813977176    0.2004319238634639    0.5663631374083339 Bi
   0.4006344006047918    0.9967263660949234    0.5691589333711786 Bi
   0.3953394537795734    0.7989941967140466    0.5653964134957744 Bi
   0.5944060950978821    0.5969554741897302    0.5677269829441640 Bi
   0.5916477234124256    0.3976026533416928    0.5659168759241656 Bi
   0.5979127105824353    0.2031516069850953    0.5651723639138492 Bi
   0.5971988153780537    0.9978160134782754    0.5650957307599663 Bi
   0.5967793221534399    0.7982411495935736    0.5669276766383313 Bi
   0.7927940773803230    0.6021237658235702    0.5670272019445478 Bi
   0.7924692824089312    0.3981279135782847    0.5670969338253871 Bi
   0.7971592347427326    0.1965806825580413    0.5667185105218309 Bi
   0.7975435173863854    0.9979495170366424    0.5669708835968196 Bi
   0.7952086938747522    0.8002511437300934    0.5676460378975884 Bi
   0.0647071090516205    0.6630876463261157    0.4852324772697951 Bi
   0.0592813466467016    0.4666948911725787    0.4881001062042239 Bi
   0.0535326495145877    0.2656409410913356    0.4864850150709299 Bi
   0.0668728462659890    0.0605674034122277    0.4861289697808922 Bi
   0.0580994531311805    0.8700893148337884    0.4847482855437938 Bi
   0.2643010494584295    0.6654350797756367    0.4876621363929954 Bi
   0.2586198795628670    0.4684374548490262    0.4878792322141040 Bi
   0.2568562739871850    0.2695202478120125    0.4870475209308790 Bi
   0.2637379912670012    0.0601657594743250    0.4881904435403842 Bi
   0.2645024148994884    0.8656336920223827    0.4873660447702002 Bi
   0.4595628276105039    0.6686913000004311    0.4873729698113629 Bi
   0.4619964604924045    0.4676255764473852    0.4848516120058755 Bi
   0.4595473147240906    0.2635416841914290    0.4873619750284607 Bi
   0.4668257203370524    0.0651023794043565    0.4891004880211337 Bi
   0.4616246632137351    0.8701084164016258    0.4863890370280017 Bi
   0.6610061800719929    0.6646326942040861    0.4858688950809379 Bi
   0.6566177913496101    0.4694887715242316    0.4857075118783534 Bi
   0.6581599975296416    0.2624369709481505    0.4855156796394296 Bi
   0.6639773507964921    0.0688361659689659    0.4848574292208229 Bi
   0.6624631744493035    0.8671296510756616    0.4860417606740527 Bi
   0.8648232673883175    0.6714948571679407    0.4870400330473326 Bi
   0.8609486153282250    0.4656680554511525    0.4869303897347902 Bi
   0.8660332606999931    0.2631229217385999    0.4875253280428902 Bi
   0.8633366388145909    0.0634773090536414    0.4851858222905438 Bi
   0.8600561338680871    0.8715383393852005    0.4880874851797203 Bi
   0.8440866062608514    0.7008003890797395    0.2010219228244594 Se
   0.6813263197105028    0.6927221882991453    0.2004006401813345 Se
   0.5154540280488877    0.6998554094993208    0.2009208761335199 Se
   0.3507374813130579    0.6968712987441420    0.2020242757322930 Se
   0.1811984315088780    0.6924168293145284    0.2002252366377853 Se
   0.0065192176730909    0.7012036494046303    0.1980704413405605 Se
   0.8426653460331597    0.5261159647476481    0.1991887808069595 Se
   0.6767831098526682    0.5316246166166164    0.1996817066813918 Se
   0.5097649060356939    0.5322307038115917    0.2004844643340425 Se
   0.3469616201157966    0.5285805710382622    0.2017623375519429 Se
   0.1785044493532106    0.5305070374632815    0.1994134069938318 Se
   0.0116202058776261    0.5294580069033041    0.2006866007411879 Se
   0.8458753999278814    0.3672850424112150    0.2008258219508479 Se
   0.6787611086340956    0.3630078796628721    0.1994024377877395 Se
   0.5167215260130734    0.3595757776755282    0.2007316473903634 Se
   0.3409150133039531    0.3700819972330249    0.1987699933660819 Se
   0.1760559634965276    0.3641271254575074    0.2006240201036288 Se
   0.0139599650035707    0.3624623499571496    0.1986565756253726 Se
   0.8464602882500013    0.1956718086635542    0.2013066435276947 Se
   0.6787368217390953    0.2002558227555954    0.2019345470806872 Se
   0.5209918623575971    0.1944831592347667    0.2001545641566276 Se
   0.3538379061882055    0.1921473922004503    0.1983237894109341 Se
   0.1807969059619005    0.1942342291064481    0.1984930843495811 Se
   0.0198572404726438    0.1908601383535129    0.2006323801743242 Se
   0.8481958906743676    0.0293609149939351    0.2010703407826777 Se
   0.6815848278027965    0.0234886085088701    0.1990229379909794 Se
   0.5114285959733001    0.0291692740035740    0.1987039064350480 Se
   0.3490357158885814    0.0319517056760485    0.1990285646788020 Se
   0.1793476241635477    0.0315081043495726    0.2009421088278783 Se
   0.0130429024420849    0.0323291586765778    0.1982473345998825 Se
   0.8487914365583368    0.8618676676127351    0.1996542448333177 Se
   0.6796733429258321    0.8627051239935598    0.2001674778581445 Se
   0.5170321049813573    0.8626239023936766    0.2005788272532765 Se
   0.3516094449341586    0.8540611325380485    0.1986170938605857 Se
   0.1818863754975940    0.8627071911373861    0.2011749225768765 Se
   0.0146049868349258    0.8662412007556747    0.2009097534725279 Se
   0.7343824017568823    0.7516210611783780    0.3222905593320616 Se
   0.5720732359124052    0.7515246501319511    0.3230710736403487 Se
   0.4103664320692830    0.7435324088197220    0.3243416604099690 Se
   0.2319906826669612    0.7508531256495121    0.3229948874469907 Se
   0.0708645702626520    0.7444456731899241    0.3231014566103982 Se
   0.9059202028257347    0.7534229309509828    0.3214388966677276 Se
   0.7401104650582830    0.5800239734995868    0.3219417125176952 Se
   0.5734014900499810    0.5871864942212069    0.3246954535374788 Se
   0.4026804087505169    0.5824031842148626    0.3228302311431177 Se
   0.2396355495649617    0.5860864939406146    0.3202983259539785 Se
   0.0684395385214000    0.5875120450186851    0.3235944531615319 Se
   0.8986835450281293    0.5856776540349858    0.3225933280632230 Se
   0.7343720065871514    0.4179864695586196    0.3214088066069691 Se
   0.5699565435443663    0.4176864568374373    0.3218855996551619 Se
   0.3973380074628115    0.4189159639605269    0.3225446570392764 Se
   0.2364175620359807    0.4144685405531908    0.3212812583347869 Se
   0.0671792303193807    0.4209355808930992    0.3232662280553116 Se
   0.9070899617821528    0.4179454004981025    0.3243111114897220 Se
   0.7401090508074357    0.2496552118456690    0.3226520232361292 Se
   0.5684650755571564    0.2522899301332685    0.3229409723480792 Se
   0.4061037214274623    0.2474592548417559    0.3207747160166348 Se
   0.2404891730222417    0.2514322555715673    0.3241657640828819 Se
   0.0701886494928872    0.2549896234249261    0.3228024304400619 Se
   0.9008422849329583    0.2460239234075098    0.3224439288595072 Se
   0.7368877631913749    0.0908102212584333    0.3250644627793043 Se
   0.5606339068543709    0.0918639385263713    0.3211264523741486 Se
   0.4043491641674768    0.0819334391544503    0.3230203932437618 Se
   0.2366096391077525    0.0867148363069804    0.3243831603170467 Se
   0.0644404930811350    0.0872386568313087    0.3233746243263877 Se
   0.9021373229074253    0.0853701562639640    0.3222002583497438 Se
   0.7434106702033256    0.9171406729642245    0.3239823677865517 Se
   0.5691008069643344    0.9193178238991834    0.3245613330779101 Se
   0.4123222794650468    0.9148797372407785    0.3236487988712627 Se
   0.2366503320444689    0.9179937689638343    0.3237288312348284 Se
   0.0716004753561071    0.9144639789797595    0.3234928191047950 Se
   0.9005273168538273    0.9293394534219163    0.3239534745480360 Se
   0.8493622241521059    0.6923745397006782    0.2663789812958741 Se
   0.6823468755568936    0.6912705025175513    0.2696123379426248 Se
   0.5086984043777907    0.6994571747137742    0.2688281598969896 Se
   0.3503901665955512    0.6931419773141826    0.2656788637611568 Se
   0.1826672208960597    0.7003388735523506    0.2689868346953310 Se
   0.0167905587354609    0.6921604677060276    0.2682562059420734 Se
   0.8449281066731301    0.5291368419349509    0.2662888774478627 Se
   0.6814402200345847    0.5291528236782345    0.2681045116819979 Se
   0.5202291883542386    0.5242628240558947    0.2690026587736791 Se
   0.3455541798162267    0.5332706189135339    0.2658457880497103 Se
   0.1833090613345603    0.5293506980177615    0.2658826674267813 Se
   0.0185953217854577    0.5186470130267573    0.2659985058077095 Se
   0.8514727579822323    0.3583695499406229    0.2667293680428089 Se
   0.6735255208773405    0.3673877507179745    0.2689339427597771 Se
   0.5129329617351983    0.3625047208773022    0.2686053154176118 Se
   0.3477220508349462    0.3621437234463930    0.2702618461662702 Se
   0.1827034435311317    0.3624889591890638    0.2672803017950509 Se
   0.0151703002059137    0.3637956179322587    0.2670209634395698 Se
   0.8525260595516474    0.1889171881112278    0.2686001908025564 Se
   0.6839210460749496    0.1985264389819399    0.2665708306994714 Se
   0.5141565294204409    0.1939799989421838    0.2658684896096272 Se
   0.3492774658587365    0.1989056805329542    0.2684815259036575 Se
   0.1861159185198137    0.1882661632443046    0.2684195317789573 Se
   0.0172452700622398    0.1903671783728894    0.2679763616317249 Se
   0.8500754124664360    0.0264462483029166    0.2696376608110641 Se
   0.6721965080447668    0.0361674101700882    0.2679543041761310 Se
   0.5082201126817331    0.0325880700054529    0.2681410452814502 Se
   0.3456562244516204    0.0242562900912118    0.2683548771071534 Se
   0.1812991222302101    0.0322583222790730    0.2665859978609783 Se
   0.0090601902816301    0.0322173267351243    0.2671755604685784 Se
   0.8480540480489930    0.8686311493774609    0.2669534634148312 Se
   0.6806148973077508    0.8621756949078808    0.2658238169726029 Se
   0.5224234721239572    0.8582832715888076    0.2666192148455984 Se
   0.3464165456439361    0.8632204984858582    0.2692115009771193 Se
   0.1794683710240274    0.8648198442571354    0.2698154401816796 Se
   0.0084101848823278    0.8608646169302683    0.2660376396578438 Se
   0.7383487688778033    0.7460618819170689    0.3882868879263816 Se
   0.5696164598811296    0.7503137554000425    0.3914721161992948 Se
   0.4030451614347631    0.7476684945383473    0.3905686732035054 Se
   0.2335001501108743    0.7546681315865367    0.3901779325438208 Se
   0.0668470641472025    0.7580116904163202    0.3908428261892637 Se
   0.8988284418254125    0.7509723963391504    0.3902279119231077 Se
   0.7374500500336387    0.5879008430334917    0.3904159361196869 Se
   0.5708927761816014    0.5806786925989990    0.3919081761876566 Se
   0.4006937388557078    0.5863279046967905    0.3900473849215249 Se
   0.2412927373032116    0.5790867623540839    0.3875373296851327 Se
   0.0690861000542016    0.5834136222649104    0.3921001666750845 Se
   0.9002234826168782    0.5862587994244415    0.3902312561687966 Se
   0.7416864870098508    0.4162461296472597    0.3917384616987729 Se
   0.5678292520154554    0.4166481414858359    0.3890579821199346 Se
   0.3980582308630974    0.4198251447213188    0.3918364942873312 Se
   0.2290983400174449    0.4194661387920782    0.3903556014070015 Se
   0.0694726064337450    0.4245382676735502    0.3892391216165812 Se
   0.9039180094448940    0.4241702491457570    0.3899525698465364 Se
   0.7346284550116930    0.2546263883499305    0.3907812484004948 Se
   0.5679418375313099    0.2539024991542032    0.3887823394241138 Se
   0.4037647915189820    0.2478426769822494    0.3904028269427273 Se
   0.2374658678282195    0.2472520360815402    0.3899353590775724 Se
   0.0651919534260203    0.2561411682345278    0.3889464800560177 Se
   0.9102703360719947    0.2460119984914552    0.3893940943219171 Se
   0.7406606543136416    0.0792231800405223    0.3938710794891794 Se
   0.5697615191294262    0.0822178078397355    0.3893104939544710 Se
   0.4026011676993737    0.0847457344708175    0.3897774267805519 Se
   0.2336320438878867    0.0840455925894453    0.3916276379403042 Se
   0.0715643330939165    0.0826387690235826    0.3904245972742774 Se
   0.9033191549690764    0.0861550448641295    0.3899675809431694 Se
   0.7333496789755938    0.9188075848202196    0.3904890058487013 Se
   0.5722938319348250    0.9152157246649296    0.3898261223966341 Se
   0.4037435935524522    0.9191430065609105    0.3905907158332371 Se
   0.2405455546116168    0.9140575028739352    0.3895997286165536 Se
   0.0672726744556233    0.9209368238522814    0.3890919858091458 Se
   0.9018830042721463    0.9166131570211155    0.3881240637413916 Se
  -0.0024175844502764    0.5995195127716445    0.8005388278963096 Se
   0.0016556779261028    0.3961622646087355    0.8002285678623667 Se
   0.0019229824449458    0.1957877111138180    0.7979638054057793 Se
   0.0046489965143555    0.9897085864832824    0.7999958787748781 Se
   0.0001739299471885    0.8005651815557585    0.8019159661226206 Se
   0.1955683352330419    0.5988036954806619    0.8014582963185296 Se
   0.2037298684669327    0.3950282611322852    0.7988874569166360 Se
   0.1998966350484015    0.1964593545169019    0.7989997639504157 Se
   0.1967082058038128    1.0011695304285777    0.8008120551207516 Se
   0.1993897796236060    0.8019182852613131    0.8005373395597999 Se
   0.4018935443814661    0.5967096729975547    0.8008067972755244 Se
   0.4027378240290673    0.3921360585009599    0.7996303324751295 Se
   0.4059102140084433    0.1930192657501490    0.8011077363010782 Se
   0.3988703288025104    0.9984472344580807    0.7990659455607105 Se
   0.4042943389012514    0.7942745729301228    0.8013747379798167 Se
   0.6064993293186993    0.5969977199324837    0.8016410075734555 Se
   0.6007487273292480    0.3981516373426709    0.7998344577221617 Se
   0.5984928134639065    0.1938053865885339    0.8007723385871172 Se
   0.5984166329212616    0.9978753331174125    0.7989529307454548 Se
   0.6009736374261639    0.7945042607360758    0.7986521560008313 Se
   0.8057945728781198    0.5916178522518822    0.7983408013778864 Se
   0.8010174382864013    0.3973122348676405    0.7992427541232601 Se
   0.8006052258461384    0.1949965423973936    0.7977977329073858 Se
   0.8033206509641186    0.9957900431485345    0.8011351332528505 Se
   0.8007247666903201    0.7954660970397091    0.8014275543797447 Se
   0.0659361528482541    0.6635515788227720    0.7254931728738950 Se
   0.0672608007549484    0.4629287395386683    0.7289177672351715 Se
   0.0674521670788926    0.2593296969525527    0.7270290359816755 Se
   0.0656172677613269    0.0566838324126194    0.7284606194619462 Se
   0.0663228144535371    0.8603875075639003    0.7262194028101420 Se
   0.2713624332506529    0.6579739601323003    0.7282511607171663 Se
   0.2692570692893445    0.4595786792385059    0.7263756572978612 Se
   0.2612719818553888    0.2661737625154076    0.7277954630336554 Se
   0.2707451921883466    0.0585908431343587    0.7265550700232946 Se
   0.2650655516021386    0.8629679732407891    0.7263934879770837 Se
   0.4639644760573489    0.6602621236175383    0.7254708048108008 Se
   0.4681751436318430    0.4619828854606017    0.7284077441025321 Se
   0.4605752777985040    0.2598259586765880    0.7261802881213724 Se
   0.4677504400028362    0.0614050634122229    0.7245873874884385 Se
   0.4603350816064972    0.8634687384365157    0.7275125541874601 Se
   0.6688069956120948    0.6605299419799674    0.7265528539735032 Se
   0.6715235810649699    0.4612269531416225    0.7269202153764338 Se
   0.6640251230869907    0.2701561501019485    0.7266367672186784 Se
   0.6745265344984723    0.0561338835121580    0.7260088121262925 Se
   0.6734116893599705    0.8583939436725752    0.7271747841061926 Se
   0.8641983028239860    0.6653602010229717    0.7270821739663873 Se
   0.8700105324231882    0.4603059176592873    0.7276489800815839 Se
   0.8640773750997979    0.2605000466028039    0.7260319526407619 Se
   0.8642810809309494    0.0686612291255435    0.7256568190009628 Se
   0.8670061664601622    0.8574411888763059    0.7266016542183079 Se
   0.1322612171572473    0.5279595970655799    0.6556413098100786 Se
   0.1313502342685518    0.3273696449610074    0.6539079945972169 Se
   0.1346742401234895    0.1315298354078678    0.6546530005931740 Se
   0.1317599274786435    0.9296470881530455    0.6538327271737896 Se
   0.1326745545770182    0.7297841906885376    0.6545921194549260 Se
   0.3269866014358724    0.5322589484231214    0.6546124850955003 Se
   0.3340024091167365    0.3284471046103852    0.6548521061199386 Se
   0.3313364871964041    0.1303610892569297    0.6546684948110335 Se
   0.3319750713843729    0.9320553112448108    0.6549534300108809 Se
   0.3286721868056069    0.7308825174402473    0.6546140920807693 Se
   0.5302448963588616    0.5270775866417375    0.6554617191502821 Se
   0.5338351511847137    0.3252703607165922    0.6550684187819215 Se
   0.5256507099745703    0.1360860425203561    0.6543854814533056 Se
   0.5346597705464300    0.9274594434043990    0.6549509066574944 Se
   0.5385030314363020    0.7307264415279762    0.6536393325241504 Se
   0.7341198228706637    0.5310453609039452    0.6529324942789485 Se
   0.7335479262302911    0.3290569354993803    0.6543055774814172 Se
   0.7328480458108214    0.1284768272452141    0.6529407549970121 Se
   0.7263810746327219    0.9351214755168924    0.6541741979035741 Se
   0.7322185642864333    0.7260360182997143    0.6545349175040878 Se
   0.9338622494756361    0.5262767327123506    0.6530917800814429 Se
   0.9295589042870516    0.3284967493686625    0.6548304279844521 Se
   0.9382000553580629    0.1251249912641026    0.6548000913065967 Se
   0.9338908341789957    0.9293718612475106    0.6542660332471399 Se
   0.9393528983384561    0.7217152458602031    0.6565183808782832 Se
   0.0636440854849770    0.6613963789084821    0.6000514883205350 Se
   0.0641087175784206    0.4658190080859843    0.5983350676456585 Se
   0.0654497836873956    0.2608431259610309    0.5980248388155933 Se
   0.0617006941579232    0.0676464724342351    0.5985275879532792 Se
   0.0587586611278166    0.8699717325808188    0.5972645106706466 Se
   0.2683755204137853    0.6611767731570292    0.5983711254116801 Se
   0.2679166417076419    0.4573323694237110    0.5993246515277547 Se
   0.2594175043065888    0.2642307205611639    0.5991030881724695 Se
   0.2661404830568767    0.0626580761400093    0.5979240386593846 Se
   0.2582567017915524    0.8694472855174167    0.6010226379749163 Se
   0.4677453691254582    0.6623724227631016    0.5998401549656803 Se
   0.4628839950390435    0.4656582028305901    0.5988721229022239 Se
   0.4619468578585874    0.2637041937677924    0.6002272159951977 Se
   0.4664736352345494    0.0564842323086661    0.5975319092139150 Se
   0.4631018233225616    0.8620440758471307    0.5986364800145971 Se
   0.6681589966905211    0.6606960337947607    0.5993504689872524 Se
   0.6632633095964343    0.4654089020885234    0.5984002654918668 Se
   0.6649797862439728    0.2598458237865088    0.6005307477126784 Se
   0.6624412693665698    0.0709579137466996    0.6004688811005141 Se
   0.6662678417705744    0.8650652737876123    0.6000902930322451 Se
   0.8620425376471543    0.6732663725803867    0.5990695036047718 Se
   0.8620074821119145    0.4640138481304615    0.5986910173925061 Se
   0.8612511261262574    0.2658047744929610    0.5982283059376640 Se
   0.8577213173065354    0.0676140643768253    0.5971410904819985 Se
   0.8676837468110916    0.8622909166262539    0.5994903669050030 Se
   0.1321723656687776    0.5372255734272436    0.5280222787536731 Se
   0.1315709629347673    0.3334193250218228    0.5263358375852407 Se
   0.1315482923121865    0.1354184310725723    0.5259386008974961 Se
   0.1313163766768711    0.9326740712290327    0.5265084942592416 Se
   0.1292491049872022    0.7289527256336257    0.5283680781687711 Se
   0.3277225456927977    0.5367395080883349    0.5240094259936686 Se
   0.3286114823767193    0.3309090510799849    0.5251910400204031 Se
   0.3349443780194121    0.1297512406159781    0.5283139658439822 Se
   0.3277996805702544    0.9372595190335232    0.5287390832445416 Se
   0.3271300887153221    0.7385174878159343    0.5268635334631099 Se
   0.5277223095544875    0.5364588300483941    0.5240976931605091 Se
   0.5283633672744489    0.3374126161684148    0.5266180529938229 Se
   0.5275059228353505    0.1359739496311476    0.5269156456593349 Se
   0.5308100017009985    0.9291527588247258    0.5267977183808542 Se
   0.5235407617522311    0.7359647783087043    0.5251212089481713 Se