Nb56 Bi76 Se226
1.0
  18.3274938734689954    0.0000000000000000    0.0000000000000011
   9.1637469363574500   15.8720752830711280    0.0000000000000011
   0.0000000000000000    0.0000000000000000   49.9893053307188922
Nb Bi Se
56 76 226
direct
   0.0358464169335894    0.0048125738683519    0.3566429020965913 Nb
   0.1072749883621608    0.1476697167254948    0.3566429020965914 Nb
   0.3215607026478749    0.0762411452969233    0.3566429020965914 Nb
   0.5358464169335893    0.0048125738683518    0.3566429020965914 Nb
   0.1787035597907321    0.2905268595826375    0.3566429020965914 Nb
   0.3929892740764463    0.2190982881540661    0.3566429020965914 Nb
   0.6072749883621608    0.1476697167254947    0.3566429020965913 Nb
   0.8215607026478751    0.0762411452969233    0.3566429020965913 Nb
   0.0358464169335892    0.5048125738683521    0.3566429020965914 Nb
   0.2501321312193036    0.4333840024397804    0.3566429020965914 Nb
   0.4644178455050177    0.3619554310112091    0.3566429020965913 Nb
   0.6787035597907318    0.2905268595826375    0.3566429020965913 Nb
   0.8929892740764465    0.2190982881540661    0.3566429020965913 Nb
   0.1072749883621605    0.6476697167254948    0.3566429020965913 Nb
   0.3215607026478748    0.5762411452969234    0.3566429020965913 Nb
   0.5358464169335894    0.5048125738683518    0.3566429020965913 Nb
   0.7501321312193033    0.4333840024397803    0.3566429020965913 Nb
   0.9644178455050176    0.3619554310112088    0.3566429020965913 Nb
   0.1787035597907321    0.7905268595826376    0.3566429020965913 Nb
   0.3929892740764465    0.7190982881540660    0.3566429020965913 Nb
   0.6072749883621605    0.6476697167254947    0.3566429020965913 Nb
   0.8215607026478748    0.5762411452969231    0.3566429020965913 Nb
   0.2501321312193036    0.9333840024397807    0.3566429020965914 Nb
   0.4644178455050175    0.8619554310112091    0.3566429020965913 Nb
   0.6787035597907318    0.7905268595826375    0.3566429020965913 Nb
   0.8929892740764463    0.7190982881540662    0.3566429020965913 Nb
   0.7501321312193033    0.9333840024397805    0.3566429020965914 Nb
   0.9644178455050175    0.8619554310112089    0.3566429020965913 Nb
   0.0357910611267423    0.0053731176949857    0.2336917587878817 Nb
   0.1072196325553136    0.1482302605521286    0.2336917587878817 Nb
   0.3215053468410280    0.0768016891235571    0.2336917587878817 Nb
   0.5357910611267422    0.0053731176949857    0.2336917587878817 Nb
   0.1786482039838852    0.2910874034092714    0.2336917587878817 Nb
   0.3929339182695992    0.2196588319807000    0.2336917587878817 Nb
   0.6072196325553137    0.1482302605521285    0.2336917587878816 Nb
   0.8215053468410278    0.0768016891235570    0.2336917587878816 Nb
   0.0357910611267423    0.5053731176949856    0.2336917587878817 Nb
   0.2500767754124564    0.4339445462664143    0.2336917587878816 Nb
   0.4643624896981708    0.3625159748378429    0.2336917587878816 Nb
   0.6786482039838850    0.2910874034092714    0.2336917587878817 Nb
   0.8929339182695996    0.2196588319807000    0.2336917587878817 Nb
   0.1072196325553136    0.6482302605521286    0.2336917587878816 Nb
   0.3215053468410279    0.5768016891235570    0.2336917587878816 Nb
   0.5357910611267421    0.5053731176949857    0.2336917587878817 Nb
   0.7500767754124562    0.4339445462664141    0.2336917587878817 Nb
   0.9643624896981706    0.3625159748378428    0.2336917587878817 Nb
   0.1786482039838852    0.7910874034092711    0.2336917587878817 Nb
   0.3929339182695994    0.7196588319807001    0.2336917587878817 Nb
   0.6072196325553136    0.6482302605521283    0.2336917587878817 Nb
   0.8215053468410279    0.5768016891235570    0.2336917587878817 Nb
   0.2500767754124565    0.9339445462664143    0.2336917587878817 Nb
   0.4643624896981705    0.8625159748378427    0.2336917587878817 Nb
   0.6786482039838848    0.7910874034092716    0.2336917587878817 Nb
   0.8929339182695994    0.7196588319807000    0.2336917587878817 Nb
   0.7500767754124561    0.9339445462664143    0.2336917587878816 Nb
   0.9643624896981705    0.8625159748378428    0.2336917587878817 Nb
   0.6832864894278317    0.7149128973303452    0.7671208852038272 Bi
   0.5780233315330948    0.9780707920671875    0.7671208852038272 Bi
   0.6306549104804634    0.3464918446987665    0.7671208852038272 Bi
   0.5253917525857266    0.6096497394356085    0.7671208852038272 Bi
   0.4201285946909895    0.8728076341724506    0.7671208852038272 Bi
   0.4727601736383578    0.2412286868040296    0.7671208852038272 Bi
   0.3674970157436213    0.5043865815408716    0.7671208852038272 Bi
   0.2622338578488843    0.7675444762777135    0.7671208852038272 Bi
   0.1569706999541474    0.0307023710145558    0.7671208852038272 Bi
   0.3148654367962526    0.1359655289092928    0.7671208852038272 Bi
   0.2096022789015158    0.3991234236461349    0.7671208852038272 Bi
   0.1043391210067788    0.6622813183829769    0.7671208852038272 Bi
   0.9990759631120421    0.9254392131198191    0.7671208852038272 Bi
   0.0517075420594104    0.2938602657513980    0.7671208852038272 Bi
   0.9464443841646735    0.5570181604882400    0.7671208852038272 Bi
   0.8411812262699369    0.8201760552250822    0.7671208852038272 Bi
   0.8938128052173052    0.1885971078566612    0.7671208852038272 Bi
   0.7885496473225685    0.4517550025935032    0.7671208852038272 Bi
   0.7359180683752001    0.0833339499619244    0.7671208852038272 Bi
   0.8254046114136711    0.6977226439957745    0.6873709670584138 Bi
   0.7201414535189342    0.9608805387326168    0.6873709670584138 Bi
   0.7727730324663027    0.3293015913641957    0.6873709670584138 Bi
   0.6675098745715656    0.5924594861010377    0.6873709670584138 Bi
   0.5622467166768290    0.8556173808378799    0.6873709670584138 Bi
   0.6148782956241973    0.2240384334694588    0.6873709670584138 Bi
   0.5096151377294605    0.4871963282063008    0.6873709670584138 Bi
   0.4043519798347235    0.7503542229431429    0.6873709670584138 Bi
   0.2990888219399867    0.0135121176799851    0.6873709670584138 Bi
   0.4569835587820921    0.1187752755747221    0.6873709670584138 Bi
   0.3517204008873551    0.3819331703115642    0.6873709670584138 Bi
   0.2464572429926183    0.6450910650484063    0.6873709670584138 Bi
   0.1411940850978814    0.9082489597852482    0.6873709670584138 Bi
   0.1938256640452498    0.2766700124168273    0.6873709670584138 Bi
   0.0885625061505131    0.5398279071536694    0.6873709670584138 Bi
   0.9832993482557761    0.8029858018905115    0.6873709670584138 Bi
   0.0359309272031445    0.1714068545220905    0.6873709670584138 Bi
   0.9306677693084077    0.4345647492589325    0.6873709670584138 Bi
   0.8780361903610394    0.0661436966273536    0.6873709670584138 Bi
   0.8294211270843057    0.6943501330258040    0.5665155440360312 Bi
   0.7241579691895691    0.9575080277626463    0.5665155440360312 Bi
   0.7767895481369373    0.3259290803942252    0.5665155440360312 Bi
   0.6715263902422005    0.5890869751310672    0.5665155440360312 Bi
   0.5662632323474637    0.8522448698679091    0.5665155440360313 Bi
   0.6188948112948319    0.2206659224994882    0.5665155440360312 Bi
   0.5136316534000952    0.4838238172363303    0.5665155440360312 Bi
   0.4083684955053583    0.7469817119731724    0.5665155440360312 Bi
   0.3031053376106216    0.0101396067100146    0.5665155440360312 Bi
   0.4610000744527269    0.1154027646047515    0.5665155440360312 Bi
   0.3557369165579899    0.3785606593415936    0.5665155440360312 Bi
   0.2504737586632529    0.6417185540784355    0.5665155440360312 Bi
   0.1452106007685160    0.9048764488152774    0.5665155440360312 Bi
   0.1978421797158845    0.2732975014468568    0.5665155440360312 Bi
   0.0925790218211478    0.5364553961836989    0.5665155440360312 Bi
   0.9873158639264110    0.7996132909205407    0.5665155440360312 Bi
   0.0399474428737792    0.1680343435521199    0.5665155440360312 Bi
   0.9346842849790425    0.4311922382889618    0.5665155440360313 Bi
   0.8820527060316738    0.0627711856573831    0.5665155440360312 Bi
   0.8121378103039115    0.5725760454967010    0.4870641414761425 Bi
   0.7068746524091746    0.8357339402335431    0.4870641414761425 Bi
   0.7595062313565428    0.2041549928651223    0.4870641414761425 Bi
   0.6542430734618063    0.4673128876019642    0.4870641414761425 Bi
   0.5489799155670693    0.7304707823388065    0.4870641414761425 Bi
   0.6016114945144374    0.0988918349703854    0.4870641414761425 Bi
   0.4963483366197006    0.3620497297072274    0.4870641414761425 Bi
   0.3910851787249638    0.6252076244440694    0.4870641414761425 Bi
   0.2858220208302272    0.8883655191809116    0.4870641414761425 Bi
   0.4437167576723323    0.9936286770756485    0.4870641414761425 Bi
   0.3384535997775954    0.2567865718124906    0.4870641414761425 Bi
   0.2331904418828585    0.5199444665493327    0.4870641414761425 Bi
   0.1279272839881216    0.7831023612861746    0.4870641414761425 Bi
   0.1805588629354902    0.1515234139177538    0.4870641414761425 Bi
   0.0752957050407533    0.4146813086545959    0.4870641414761425 Bi
   0.9700325471460165    0.6778392033914379    0.4870641414761425 Bi
   0.0226641260933848    0.0462602560230170    0.4870641414761426 Bi
   0.9174009681986480    0.3094181507598591    0.4870641414761425 Bi
   0.8647693892512794    0.9409970981282801    0.4870641414761425 Bi
   0.9405215629690452    0.9815936526175510    0.2000427878291580 Se
   0.0119501343976166    0.1244507954746939    0.2000427878291580 Se
   0.2262358486833308    0.0530222240461225    0.2000427878291580 Se
   0.4405215629690451    0.9815936526175510    0.2000427878291580 Se
   0.0833787058261879    0.2673079383318367    0.2000427878291580 Se
   0.2976644201119021    0.1958793669032654    0.2000427878291580 Se
   0.5119501343976163    0.1244507954746938    0.2000427878291580 Se
   0.7262358486833306    0.0530222240461223    0.2000427878291580 Se
   0.9405215629690453    0.4815936526175509    0.2000427878291580 Se
   0.1548072772547592    0.4101650811889796    0.2000427878291580 Se
   0.3690929915404734    0.3387365097604081    0.2000427878291580 Se
   0.5833787058261878    0.2673079383318367    0.2000427878291580 Se
   0.7976644201119023    0.1958793669032653    0.2000427878291580 Se
   0.0119501343976164    0.6244507954746940    0.2000427878291580 Se
   0.2262358486833308    0.5530222240461223    0.2000427878291580 Se
   0.4405215629690450    0.4815936526175509    0.2000427878291580 Se
   0.6548072772547592    0.4101650811889795    0.2000427878291580 Se
   0.8690929915404736    0.3387365097604080    0.2000427878291580 Se
   0.0833787058261879    0.7673079383318366    0.2000427878291580 Se
   0.2976644201119022    0.6958793669032652    0.2000427878291580 Se
   0.5119501343976165    0.6244507954746940    0.2000427878291580 Se
   0.7262358486833309    0.5530222240461222    0.2000427878291580 Se
   0.1548072772547593    0.9101650811889798    0.2000427878291580 Se
   0.3690929915404734    0.8387365097604081    0.2000427878291580 Se
   0.5833787058261877    0.7673079383318367    0.2000427878291580 Se
   0.7976644201119020    0.6958793669032654    0.2000427878291580 Se
   0.6548072772547592    0.9101650811889794    0.2000427878291580 Se
   0.8690929915404736    0.8387365097604083    0.2000427878291580 Se
   0.0596381653477567    0.8857772048857048    0.3229896502366214 Se
   0.1310667367763283    0.0286343477428474    0.3229896502366214 Se
   0.3453524510620426    0.9572057763142759    0.3229896502366214 Se
   0.5596381653477567    0.8857772048857045    0.3229896502366214 Se
   0.2024953082048997    0.1714914905999903    0.3229896502366214 Se
   0.4167810224906138    0.1000629191714188    0.3229896502366214 Se
   0.6310667367763282    0.0286343477428473    0.3229896502366214 Se
   0.8453524510620425    0.9572057763142759    0.3229896502366214 Se
   0.0596381653477568    0.3857772048857047    0.3229896502366214 Se
   0.2739238796334710    0.3143486334571332    0.3229896502366214 Se
   0.4882095939191853    0.2429200620285618    0.3229896502366214 Se
   0.7024953082048998    0.1714914905999903    0.3229896502366214 Se
   0.9167810224906141    0.1000629191714188    0.3229896502366214 Se
   0.1310667367763282    0.5286343477428472    0.3229896502366214 Se
   0.3453524510620424    0.4572057763142761    0.3229896502366214 Se
   0.5596381653477569    0.3857772048857045    0.3229896502366214 Se
   0.7739238796334711    0.3143486334571330    0.3229896502366214 Se
   0.9882095939191854    0.2429200620285616    0.3229896502366214 Se
   0.2024953082048996    0.6714914905999904    0.3229896502366214 Se
   0.4167810224906142    0.6000629191714187    0.3229896502366214 Se
   0.6310667367763282    0.5286343477428473    0.3229896502366214 Se
   0.8453524510620424    0.4572057763142758    0.3229896502366214 Se
   0.2739238796334711    0.8143486334571332    0.3229896502366214 Se
   0.4882095939191852    0.7429200620285618    0.3229896502366214 Se
   0.7024953082048997    0.6714914905999902    0.3229896502366214 Se
   0.9167810224906138    0.6000629191714190    0.3229896502366214 Se
   0.7739238796334710    0.8143486334571333    0.3229896502366214 Se
   0.9882095939191853    0.7429200620285616    0.3229896502366214 Se
   0.9405528587224755    0.9815259135446702    0.2673459347889960 Se
   0.0119814301510467    0.1243830564018131    0.2673459347889960 Se
   0.2262671444367610    0.0529544849732416    0.2673459347889960 Se
   0.4405528587224753    0.9815259135446702    0.2673459347889960 Se
   0.0834100015796182    0.2672401992589559    0.2673459347889960 Se
   0.2976957158653324    0.1958116278303845    0.2673459347889960 Se
   0.5119814301510467    0.1243830564018130    0.2673459347889960 Se
   0.7262671444367609    0.0529544849732415    0.2673459347889960 Se
   0.9405528587224754    0.4815259135446702    0.2673459347889960 Se
   0.1548385730081895    0.4100973421160988    0.2673459347889960 Se
   0.3691242872939037    0.3386687706875273    0.2673459347889960 Se
   0.5834100015796179    0.2672401992589559    0.2673459347889960 Se
   0.7976957158653325    0.1958116278303844    0.2673459347889960 Se
   0.0119814301510466    0.6243830564018131    0.2673459347889960 Se
   0.2262671444367611    0.5529544849732415    0.2673459347889960 Se
   0.4405528587224752    0.4815259135446702    0.2673459347889960 Se
   0.6548385730081895    0.4100973421160987    0.2673459347889960 Se
   0.8691242872939039    0.3386687706875272    0.2673459347889960 Se
   0.0834100015796181    0.7672401992589558    0.2673459347889960 Se
   0.2976957158653324    0.6958116278303844    0.2673459347889960 Se
   0.5119814301510465    0.6243830564018129    0.2673459347889960 Se
   0.7262671444367609    0.5529544849732414    0.2673459347889960 Se
   0.1548385730081895    0.9100973421160988    0.2673459347889960 Se
   0.3691242872939036    0.8386687706875273    0.2673459347889960 Se
   0.5834100015796179    0.7672401992589559    0.2673459347889960 Se
   0.7976957158653323    0.6958116278303843    0.2673459347889960 Se
   0.6548385730081894    0.9100973421160985    0.2673459347889960 Se
   0.8691242872939038    0.8386687706875273    0.2673459347889960 Se
   0.0596785047611660    0.8857110812165766    0.3902928416568581 Se
   0.1311070761897375    0.0285682240737194    0.3902928416568581 Se
   0.3453927904754517    0.9571396526451479    0.3902928416568581 Se
   0.5596785047611658    0.8857110812165766    0.3902928416568581 Se
   0.2025356476183088    0.1714253669308622    0.3902928416568581 Se
   0.4168213619040230    0.0999967955022907    0.3902928416568581 Se
   0.6311070761897375    0.0285682240737193    0.3902928416568581 Se
   0.8453927904754518    0.9571396526451478    0.3902928416568581 Se
   0.0596785047611660    0.3857110812165765    0.3902928416568581 Se
   0.2739642190468802    0.3142825097880051    0.3902928416568581 Se
   0.4882499333325946    0.2428539383594336    0.3902928416568581 Se
   0.7025356476183089    0.1714253669308622    0.3902928416568581 Se
   0.9168213619040231    0.0999967955022907    0.3902928416568581 Se
   0.1311070761897375    0.5285682240737194    0.3902928416568581 Se
   0.3453927904754517    0.4571396526451480    0.3902928416568581 Se
   0.5596785047611661    0.3857110812165763    0.3902928416568581 Se
   0.7739642190468798    0.3142825097880049    0.3902928416568581 Se
   0.9882499333325945    0.2428539383594335    0.3902928416568581 Se
   0.2025356476183090    0.6714253669308621    0.3902928416568581 Se
   0.4168213619040232    0.5999967955022907    0.3902928416568581 Se
   0.6311070761897374    0.5285682240737191    0.3902928416568581 Se
   0.8453927904754517    0.4571396526451477    0.3902928416568581 Se
   0.2739642190468802    0.8142825097880051    0.3902928416568581 Se
   0.4882499333325943    0.7428539383594335    0.3902928416568581 Se
   0.7025356476183087    0.6714253669308622    0.3902928416568581 Se
   0.9168213619040225    0.5999967955022907    0.3902928416568581 Se
   0.7739642190468800    0.8142825097880050    0.3902928416568581 Se
   0.9882499333325945    0.7428539383594336    0.3902928416568581 Se
   0.8235800833465429    0.6967345005941756    0.7999572121708421 Se
   0.7183169254518060    0.9598923953310177    0.7999572121708421 Se
   0.7709485043991744    0.3283134479625968    0.7999572121708421 Se
   0.6656853465044378    0.5914713426994388    0.7999572121708421 Se
   0.5604221886097007    0.8546292374362807    0.7999572121708421 Se
   0.6130537675570689    0.2230502900678598    0.7999572121708421 Se
   0.5077906096623322    0.4862081848047020    0.7999572121708421 Se
   0.4025274517675954    0.7493660795415440    0.7999572121708421 Se
   0.2972642938728587    0.0125239742783863    0.7999572121708421 Se
   0.4551590307149638    0.1177871321731231    0.7999572121708421 Se
   0.3498958728202269    0.3809450269099651    0.7999572121708421 Se
   0.2446327149254900    0.6441029216468072    0.7999572121708421 Se
   0.1393695570307532    0.9072608163836493    0.7999572121708421 Se
   0.1920011359781216    0.2756818690152283    0.7999572121708421 Se
   0.0867379780833849    0.5388397637520703    0.7999572121708421 Se
   0.9814748201886480    0.8019976584889124    0.7999572121708421 Se
   0.0341063991360164    0.1704187111204915    0.7999572121708421 Se
   0.9288432412412796    0.4335766058573337    0.7999572121708421 Se
   0.8762116622939110    0.0651555532257547    0.7999572121708421 Se
   0.8066795739396979    0.5755853735097566    0.7271899584285131 Se
   0.7014164160449609    0.8387432682465988    0.7271899584285131 Se
   0.7540479949923298    0.2071643208781780    0.7271899584285132 Se
   0.6487848370975926    0.4703222156150199    0.7271899584285131 Se
   0.5435216792028558    0.7334801103518619    0.7271899584285131 Se
   0.5961532581502239    0.1019011629834410    0.7271899584285132 Se
   0.4908901002554872    0.3650590577202830    0.7271899584285132 Se
   0.3856269423607504    0.6282169524571251    0.7271899584285132 Se
   0.2803637844660135    0.8913748471939673    0.7271899584285131 Se
   0.4382585213081188    0.9966380050887043    0.7271899584285132 Se
   0.3329953634133818    0.2597958998255463    0.7271899584285132 Se
   0.2277322055186451    0.5229537945623883    0.7271899584285132 Se
   0.1224690476239082    0.7861116892992304    0.7271899584285132 Se
   0.1751006265712766    0.1545327419308094    0.7271899584285132 Se
   0.0698374686765399    0.4176906366676515    0.7271899584285132 Se
   0.9645743107818029    0.6808485314044935    0.7271899584285131 Se
   0.0172058897291713    0.0492695840360726    0.7271899584285132 Se
   0.9119427318344345    0.3124274787729147    0.7271899584285131 Se
   0.8593111528870662    0.9440064261413358    0.7271899584285132 Se
   0.6843604726714505    0.7151146390224361    0.6545040291068935 Se
   0.5790973147767134    0.9782725337592785    0.6545040291068935 Se
   0.6317288937240820    0.3466935863908574    0.6545040291068935 Se
   0.5264657358293453    0.6098514811276994    0.6545040291068935 Se
   0.4212025779346081    0.8730093758645415    0.6545040291068935 Se
   0.4738341568819765    0.2414304284961206    0.6545040291068935 Se
   0.3685709989872397    0.5045883232329625    0.6545040291068935 Se
   0.2633078410925030    0.7677462179698046    0.6545040291068935 Se
   0.1580446831977661    0.0309041127066470    0.6545040291068935 Se
   0.3159394200398712    0.1361672706013838    0.6545040291068935 Se
   0.2106762621451344    0.3993251653382258    0.6545040291068935 Se
   0.1054131042503975    0.6624830600750679    0.6545040291068935 Se
   0.0001499463556605    0.9256409548119101    0.6545040291068935 Se
   0.0527815253030291    0.2940620074434890    0.6545040291068935 Se
   0.9475183674082922    0.5572199021803310    0.6545040291068935 Se
   0.8422552095135553    0.8203777969171729    0.6545040291068935 Se
   0.8948867884609238    0.1887988495487521    0.6545040291068935 Se
   0.7896236305661870    0.4519567442855941    0.6545040291068935 Se
   0.7369920516188185    0.0835356916540154    0.6545040291068935 Se
   0.8118965107157302    0.5727900134247075    0.5991574626168229 Se
   0.7066333528209933    0.8359479081615495    0.5991574626168229 Se
   0.7592649317683620    0.2043689607931286    0.5991574626168228 Se
   0.6540017738736251    0.4675268555299705    0.5991574626168228 Se
   0.5487386159788883    0.7306847502668126    0.5991574626168228 Se
   0.6013701949262565    0.0991058028983916    0.5991574626168228 Se
   0.4961070370315195    0.3622636976352338    0.5991574626168228 Se
   0.3908438791367828    0.6254215923720757    0.5991574626168228 Se
   0.2855807212420460    0.8885794871089180    0.5991574626168228 Se
   0.4434754580841511    0.9938426450036549    0.5991574626168228 Se
   0.3382123001894142    0.2570005397404969    0.5991574626168228 Se
   0.2329491422946774    0.5201584344773390    0.5991574626168228 Se
   0.1276859843999406    0.7833163292141810    0.5991574626168228 Se
   0.1803175633473090    0.1517373818457601    0.5991574626168228 Se
   0.0750544054525722    0.4148952765826022    0.5991574626168228 Se
   0.9697912475578353    0.6780531713194443    0.5991574626168228 Se
   0.0224228265052037    0.0464742239510233    0.5991574626168228 Se
   0.9171596686104668    0.3096321186878653    0.5991574626168228 Se
   0.8645280896630984    0.9412110660562865    0.5991574626168228 Se
   0.6895066010076918    0.7119078702679605    0.5267847356324311 Se
   0.5842434431129550    0.9750657650048030    0.5267847356324311 Se
   0.6368750220603234    0.3434868176363818    0.5267847356324311 Se
   0.5316118641655866    0.6066447123732239    0.5267847356324311 Se
   0.4263487062708494    0.8698026071100661    0.5267847356324311 Se
   0.4789802852182182    0.2382236597416450    0.5267847356324311 Se
   0.3737171273234811    0.5013815544784869    0.5267847356324311 Se
   0.2684539694287443    0.7645394492153291    0.5267847356324311 Se
   0.1631908115340077    0.0276973439521713    0.5267847356324311 Se
   0.3210855483761128    0.1329605018469082    0.5267847356324311 Se
   0.2158223904813760    0.3961183965837503    0.5267847356324311 Se
   0.1105592325866390    0.6592762913205924    0.5267847356324311 Se
   0.0052960746919023    0.9224341860574344    0.5267847356324311 Se
   0.0579276536392707    0.2908552386890134    0.5267847356324311 Se
   0.9526644957445340    0.5540131334258556    0.5267847356324311 Se
   0.8474013378497971    0.8171710281626976    0.5267847356324311 Se
   0.9000329167971657    0.1855920807942766    0.5267847356324311 Se
   0.7947697589024286    0.4487499755311188    0.5267847356324311 Se
   0.7421381799550602    0.0803289228995398    0.5267847356324311 Se
   0.8293989574873013    0.6939376937149178    0.4543065337621886 Se
   0.7241357995925646    0.9570955884517599    0.4543065337621886 Se
   0.7767673785399331    0.3255166410833388    0.4543065337621886 Se
   0.6715042206451962    0.5886745358201809    0.4543065337621886 Se
   0.5662410627504594    0.8518324305570230    0.4543065337621886 Se
   0.6188726416978277    0.2202534831886020    0.4543065337621886 Se
   0.5136094838030907    0.4834113779254439    0.4543065337621886 Se
   0.4083463259083540    0.7465692726622859    0.4543065337621886 Se
   0.3030831680136172    0.0097271673991282    0.4543065337621886 Se
   0.4609779048557225    0.1149903252938653    0.4543065337621886 Se
   0.3557147469609856    0.3781482200307073    0.4543065337621886 Se
   0.2504515890662488    0.6413061147675493    0.4543065337621886 Se
   0.1451884311715118    0.9044640095043913    0.4543065337621886 Se
   0.1978200101188802    0.2728850621359705    0.4543065337621886 Se
   0.0925568522241435    0.5360429568728126    0.4543065337621886 Se
   0.9872936943294065    0.7992008516096545    0.4543065337621886 Se
   0.0399252732767750    0.1676219042412336    0.4543065337621886 Se
   0.9346621153820382    0.4307797989780756    0.4543065337621886 Se
   0.8820305364346699    0.0623587463464968    0.4543065337621886 Se
