Nb60 Bi88 Se252
1.0
  17.3178539089013910    0.0000000000000000    0.0000000000000011
   6.9271415625629853   17.9972417095394448    0.0000000000000012
   0.0000000000000000    0.0000000000000000   44.4624158930297497
Nb Bi Se
60 88 252
direct
   0.8853819718289230    0.6515986256633053    0.3447480443666843 Nb
   0.6853819718289230    0.6515986256633050    0.3447480443666843 Nb
   0.4853819718289233    0.6515986256633050    0.3447480443666843 Nb
   0.2853819718289232    0.6515986256633050    0.3447480443666843 Nb
   0.0853819718289232    0.6515986256633050    0.3447480443666843 Nb
   0.8520486384955896    0.4849319589966383    0.3447480443666843 Nb
   0.6520486384955896    0.4849319589966383    0.3447480443666843 Nb
   0.4520486384955899    0.4849319589966383    0.3447480443666843 Nb
   0.2520486384955900    0.4849319589966383    0.3447480443666843 Nb
   0.0520486384955898    0.4849319589966383    0.3447480443666843 Nb
   0.8187153051622567    0.3182652923299719    0.3447480443666843 Nb
   0.6187153051622566    0.3182652923299718    0.3447480443666843 Nb
   0.4187153051622564    0.3182652923299718    0.3447480443666843 Nb
   0.2187153051622565    0.3182652923299717    0.3447480443666843 Nb
   0.0187153051622564    0.3182652923299717    0.3447480443666843 Nb
   0.7853819718289230    0.1515986256633051    0.3447480443666843 Nb
   0.5853819718289230    0.1515986256633052    0.3447480443666843 Nb
   0.3853819718289231    0.1515986256633051    0.3447480443666843 Nb
   0.1853819718289231    0.1515986256633051    0.3447480443666843 Nb
   0.9853819718289232    0.1515986256633050    0.3447480443666843 Nb
   0.7520486384955897    0.9849319589966385    0.3447480443666843 Nb
   0.5520486384955898    0.9849319589966385    0.3447480443666843 Nb
   0.3520486384955897    0.9849319589966384    0.3447480443666843 Nb
   0.1520486384955897    0.9849319589966384    0.3447480443666843 Nb
   0.9520486384955895    0.9849319589966384    0.3447480443666843 Nb
   0.7187153051622566    0.8182652923299718    0.3447480443666843 Nb
   0.5187153051622562    0.8182652923299717    0.3447480443666843 Nb
   0.3187153051622566    0.8182652923299717    0.3447480443666843 Nb
   0.1187153051622564    0.8182652923299717    0.3447480443666843 Nb
   0.9187153051622565    0.8182652923299718    0.3447480443666843 Nb
   0.8855420556268505    0.6510565337722870    0.2065134900768984 Nb
   0.6855420556268508    0.6510565337722870    0.2065134900768984 Nb
   0.4855420556268510    0.6510565337722869    0.2065134900768984 Nb
   0.2855420556268507    0.6510565337722869    0.2065134900768984 Nb
   0.0855420556268506    0.6510565337722869    0.2065134900768984 Nb
   0.8522087222935175    0.4843898671056203    0.2065134900768984 Nb
   0.6522087222935172    0.4843898671056202    0.2065134900768984 Nb
   0.4522087222935173    0.4843898671056203    0.2065134900768984 Nb
   0.2522087222935174    0.4843898671056202    0.2065134900768984 Nb
   0.0522087222935174    0.4843898671056201    0.2065134900768984 Nb
   0.8188753889601839    0.3177232004389537    0.2065134900768984 Nb
   0.6188753889601840    0.3177232004389537    0.2065134900768984 Nb
   0.4188753889601838    0.3177232004389537    0.2065134900768984 Nb
   0.2188753889601841    0.3177232004389536    0.2065134900768984 Nb
   0.0188753889601840    0.3177232004389536    0.2065134900768984 Nb
   0.7855420556268506    0.1510565337722870    0.2065134900768984 Nb
   0.5855420556268508    0.1510565337722871    0.2065134900768984 Nb
   0.3855420556268506    0.1510565337722870    0.2065134900768984 Nb
   0.1855420556268506    0.1510565337722870    0.2065134900768984 Nb
   0.9855420556268506    0.1510565337722869    0.2065134900768984 Nb
   0.7522087222935172    0.9843898671056205    0.2065134900768984 Nb
   0.5522087222935173    0.9843898671056204    0.2065134900768984 Nb
   0.3522087222935172    0.9843898671056204    0.2065134900768984 Nb
   0.1522087222935173    0.9843898671056203    0.2065134900768984 Nb
   0.9522087222935174    0.9843898671056204    0.2065134900768984 Nb
   0.7188753889601838    0.8177232004389537    0.2065134900768984 Nb
   0.5188753889601840    0.8177232004389537    0.2065134900768984 Nb
   0.3188753889601839    0.8177232004389536    0.2065134900768984 Nb
   0.1188753889601840    0.8177232004389537    0.2065134900768984 Nb
   0.9188753889601841    0.8177232004389536    0.2065134900768984 Nb
   0.5326421597441938    0.0801448432189192    0.7944001694220465 Bi
   0.7144603415623757    0.1710539341280100    0.7944001694220465 Bi
   0.8962785233805575    0.2619630250371010    0.7944001694220465 Bi
   0.9417330688351030    0.0346902977643737    0.7944001694220465 Bi
   0.1235512506532848    0.1255993886734646    0.7944001694220465 Bi
   0.3053694324714666    0.2165084795825556    0.7944001694220465 Bi
   0.4871876142896485    0.3074175704916464    0.7944001694220465 Bi
   0.6690057961078303    0.3983266614007373    0.7944001694220465 Bi
   0.8508239779260122    0.4892357523098282    0.7944001694220465 Bi
   0.0780967051987394    0.3528721159461918    0.7944001694220465 Bi
   0.2599148870169211    0.4437812068552828    0.7944001694220465 Bi
   0.4417330688351030    0.5346902977643739    0.7944001694220465 Bi
   0.6235512506532848    0.6255993886734647    0.7944001694220465 Bi
   0.8053694324714666    0.7165084795825557    0.7944001694220465 Bi
   0.0326421597441939    0.5801448432189191    0.7944001694220465 Bi
   0.2144603415623758    0.6710539341280100    0.7944001694220465 Bi
   0.3962785233805575    0.7619630250371010    0.7944001694220465 Bi
   0.5780967051987393    0.8528721159461919    0.7944001694220465 Bi
   0.7599148870169212    0.9437812068552828    0.7944001694220465 Bi
   0.9871876142896483    0.8074175704916464    0.7944001694220465 Bi
   0.1690057961078303    0.8983266614007374    0.7944001694220465 Bi
   0.3508239779260121    0.9892357523098283    0.7944001694220465 Bi
   0.3979977279441356    0.0937701015038761    0.7047369577364245 Bi
   0.5798159097623172    0.1846791924129670    0.7047369577364245 Bi
   0.7616340915804991    0.2755882833220579    0.7047369577364245 Bi
   0.8070886370350447    0.0483155560493306    0.7047369577364245 Bi
   0.9889068188532264    0.1392246469584214    0.7047369577364245 Bi
   0.1707250006714083    0.2301337378675124    0.7047369577364245 Bi
   0.3525431824895900    0.3210428287766032    0.7047369577364245 Bi
   0.5343613643077718    0.4119519196856942    0.7047369577364245 Bi
   0.7161795461259537    0.5028610105947852    0.7047369577364245 Bi
   0.9434522733986813    0.3664973742311487    0.7047369577364245 Bi
   0.1252704552168628    0.4574064651402396    0.7047369577364245 Bi
   0.3070886370350446    0.5483155560493305    0.7047369577364245 Bi
   0.4889068188532265    0.6392246469584215    0.7047369577364245 Bi
   0.6707250006714081    0.7301337378675125    0.7047369577364245 Bi
   0.8979977279441356    0.5937701015038760    0.7047369577364245 Bi
   0.0798159097623173    0.6846791924129668    0.7047369577364245 Bi
   0.2616340915804990    0.7755882833220579    0.7047369577364245 Bi
   0.4434522733986811    0.8664973742311488    0.7047369577364245 Bi
   0.6252704552168628    0.9574064651402396    0.7047369577364245 Bi
   0.8525431824895900    0.8210428287766033    0.7047369577364245 Bi
   0.0343613643077720    0.9119519196856942    0.7047369577364245 Bi
   0.2161795461259537    0.0028610105947850    0.7047369577364245 Bi
   0.3977288881742008    0.0903012925156006    0.5688586317166681 Bi
   0.5795470699923825    0.1812103834246915    0.5688586317166681 Bi
   0.7613652518105645    0.2721194743337825    0.5688586317166681 Bi
   0.8068197972651099    0.0448467470610551    0.5688586317166681 Bi
   0.9886379790832918    0.1357558379701460    0.5688586317166681 Bi
   0.1704561609014736    0.2266649288792368    0.5688586317166681 Bi
   0.3522743427196553    0.3175740197883278    0.5688586317166681 Bi
   0.5340925245378370    0.4084831106974189    0.5688586317166681 Bi
   0.7159107063560191    0.4993922016065097    0.5688586317166681 Bi
   0.9431834336287461    0.3630285652428733    0.5688586317166681 Bi
   0.1250016154469281    0.4539376561519641    0.5688586317166681 Bi
   0.3068197972651099    0.5448467470610552    0.5688586317166681 Bi
   0.4886379790832916    0.6357558379701460    0.5688586317166681 Bi
   0.6704561609014736    0.7266649288792372    0.5688586317166681 Bi
   0.8977288881742009    0.5903012925156006    0.5688586317166681 Bi
   0.0795470699923826    0.6812103834246915    0.5688586317166681 Bi
   0.2613652518105645    0.7721194743337824    0.5688586317166681 Bi
   0.4431834336287462    0.8630285652428732    0.5688586317166681 Bi
   0.6250016154469279    0.9539376561519641    0.5688586317166681 Bi
   0.8522743427196555    0.8175740197883280    0.5688586317166682 Bi
   0.0340925245378373    0.9084831106974186    0.5688586317166681 Bi
   0.2159107063560190    0.9993922016065095    0.5688586317166681 Bi
   0.6716904194966115    0.0597732479168503    0.4795310425214355 Bi
   0.8535086013147929    0.1506823388259413    0.4795310425214355 Bi
   0.0353267831329748    0.2415914297350322    0.4795310425214355 Bi
   0.0807813285875204    0.0143187024623048    0.4795310425214355 Bi
   0.2625995104057021    0.1052277933713958    0.4795310425214355 Bi
   0.4444176922238839    0.1961368842804867    0.4795310425214355 Bi
   0.6262358740420657    0.2870459751895778    0.4795310425214355 Bi
   0.8080540558602475    0.3779550660986686    0.4795310425214355 Bi
   0.9898722376784297    0.4688641570077596    0.4795310425214355 Bi
   0.2171449649511567    0.3325005206441231    0.4795310425214355 Bi
   0.3989631467693385    0.4234096115532139    0.4795310425214355 Bi
   0.5807813285875205    0.5143187024623049    0.4795310425214355 Bi
   0.7625995104057024    0.6052277933713959    0.4795310425214355 Bi
   0.9444176922238842    0.6961368842804870    0.4795310425214355 Bi
   0.1716904194966113    0.5597732479168503    0.4795310425214355 Bi
   0.3535086013147931    0.6506823388259414    0.4795310425214355 Bi
   0.5353267831329750    0.7415914297350322    0.4795310425214355 Bi
   0.7171449649511568    0.8325005206441232    0.4795310425214355 Bi
   0.8989631467693388    0.9234096115532141    0.4795310425214355 Bi
   0.1262358740420659    0.7870459751895778    0.4795310425214355 Bi
   0.3080540558602478    0.8779550660986686    0.4795310425214355 Bi
   0.4898722376784294    0.9688641570077594    0.4795310425214355 Bi
   0.9633530610147014    0.7065924982356205    0.1686817922364798 Se
   0.7633530610147014    0.7065924982356204    0.1686817922364798 Se
   0.5633530610147015    0.7065924982356205    0.1686817922364798 Se
   0.3633530610147017    0.7065924982356205    0.1686817922364798 Se
   0.1633530610147014    0.7065924982356205    0.1686817922364798 Se
   0.9300197276813680    0.5399258315689540    0.1686817922364798 Se
   0.7300197276813679    0.5399258315689538    0.1686817922364798 Se
   0.5300197276813681    0.5399258315689541    0.1686817922364798 Se
   0.3300197276813682    0.5399258315689540    0.1686817922364798 Se
   0.1300197276813681    0.5399258315689538    0.1686817922364798 Se
   0.8966863943480348    0.3732591649022873    0.1686817922364798 Se
   0.6966863943480347    0.3732591649022875    0.1686817922364798 Se
   0.4966863943480345    0.3732591649022874    0.1686817922364798 Se
   0.2966863943480346    0.3732591649022873    0.1686817922364798 Se
   0.0966863943480347    0.3732591649022873    0.1686817922364798 Se
   0.8633530610147013    0.2065924982356208    0.1686817922364798 Se
   0.6633530610147014    0.2065924982356208    0.1686817922364798 Se
   0.4633530610147013    0.2065924982356206    0.1686817922364798 Se
   0.2633530610147014    0.2065924982356207    0.1686817922364798 Se
   0.0633530610147013    0.2065924982356207    0.1686817922364798 Se
   0.8300197276813679    0.0399258315689542    0.1686817922364798 Se
   0.6300197276813678    0.0399258315689541    0.1686817922364798 Se
   0.4300197276813678    0.0399258315689541    0.1686817922364798 Se
   0.2300197276813679    0.0399258315689539    0.1686817922364798 Se
   0.0300197276813679    0.0399258315689540    0.1686817922364798 Se
   0.7966863943480345    0.8732591649022876    0.1686817922364798 Se
   0.5966863943480348    0.8732591649022876    0.1686817922364798 Se
   0.3966863943480346    0.8732591649022874    0.1686817922364798 Se
   0.1966863943480346    0.8732591649022874    0.1686817922364798 Se
   0.9966863943480345    0.8732591649022874    0.1686817922364798 Se
   0.8409553827401151    0.7627034118412299    0.3069115334886654 Se
   0.6409553827401151    0.7627034118412297    0.3069115334886654 Se
   0.4409553827401153    0.7627034118412300    0.3069115334886654 Se
   0.2409553827401151    0.7627034118412297    0.3069115334886655 Se
   0.0409553827401151    0.7627034118412297    0.3069115334886655 Se
   0.8076220494067817    0.5960367451745632    0.3069115334886654 Se
   0.6076220494067817    0.5960367451745632    0.3069115334886654 Se
   0.4076220494067816    0.5960367451745632    0.3069115334886655 Se
   0.2076220494067819    0.5960367451745632    0.3069115334886655 Se
   0.0076220494067818    0.5960367451745632    0.3069115334886654 Se
   0.7742887160734484    0.4293700785078967    0.3069115334886654 Se
   0.5742887160734484    0.4293700785078967    0.3069115334886655 Se
   0.3742887160734483    0.4293700785078965    0.3069115334886655 Se
   0.1742887160734484    0.4293700785078967    0.3069115334886654 Se
   0.9742887160734485    0.4293700785078965    0.3069115334886654 Se
   0.7409553827401150    0.2627034118412299    0.3069115334886655 Se
   0.5409553827401153    0.2627034118412300    0.3069115334886655 Se
   0.3409553827401151    0.2627034118412299    0.3069115334886654 Se
   0.1409553827401152    0.2627034118412299    0.3069115334886654 Se
   0.9409553827401151    0.2627034118412300    0.3069115334886654 Se
   0.7076220494067815    0.0960367451745634    0.3069115334886655 Se
   0.5076220494067818    0.0960367451745633    0.3069115334886654 Se
   0.3076220494067816    0.0960367451745633    0.3069115334886654 Se
   0.1076220494067817    0.0960367451745633    0.3069115334886654 Se
   0.9076220494067816    0.0960367451745633    0.3069115334886655 Se
   0.6742887160734485    0.9293700785078967    0.3069115334886654 Se
   0.4742887160734485    0.9293700785078967    0.3069115334886654 Se
   0.2742887160734485    0.9293700785078967    0.3069115334886654 Se
   0.0742887160734484    0.9293700785078964    0.3069115334886655 Se
   0.8742887160734485    0.9293700785078967    0.3069115334886654 Se
   0.9633123902138190    0.7066498053906912    0.2443510399711945 Se
   0.7633123902138189    0.7066498053906912    0.2443510399711945 Se
   0.5633123902138188    0.7066498053906914    0.2443510399711945 Se
   0.3633123902138192    0.7066498053906911    0.2443510399711945 Se
   0.1633123902138189    0.7066498053906911    0.2443510399711945 Se
   0.9299790568804855    0.5399831387240246    0.2443510399711945 Se
   0.7299790568804856    0.5399831387240248    0.2443510399711945 Se
   0.5299790568804859    0.5399831387240247    0.2443510399711945 Se
   0.3299790568804858    0.5399831387240247    0.2443510399711945 Se
   0.1299790568804857    0.5399831387240247    0.2443510399711945 Se
   0.8966457235471521    0.3733164720573584    0.2443510399711945 Se
   0.6966457235471525    0.3733164720573583    0.2443510399711945 Se
   0.4966457235471522    0.3733164720573582    0.2443510399711945 Se
   0.2966457235471524    0.3733164720573581    0.2443510399711945 Se
   0.0966457235471523    0.3733164720573581    0.2443510399711945 Se
   0.8633123902138186    0.2066498053906916    0.2443510399711945 Se
   0.6633123902138188    0.2066498053906916    0.2443510399711945 Se
   0.4633123902138189    0.2066498053906915    0.2443510399711945 Se
   0.2633123902138189    0.2066498053906915    0.2443510399711945 Se
   0.0633123902138189    0.2066498053906914    0.2443510399711945 Se
   0.8299790568804855    0.0399831387240250    0.2443510399711945 Se
   0.6299790568804855    0.0399831387240249    0.2443510399711945 Se
   0.4299790568804855    0.0399831387240249    0.2443510399711945 Se
   0.2299790568804855    0.0399831387240248    0.2443510399711945 Se
   0.0299790568804855    0.0399831387240248    0.2443510399711945 Se
   0.7966457235471522    0.8733164720573582    0.2443510399711945 Se
   0.5966457235471523    0.8733164720573582    0.2443510399711945 Se
   0.3966457235471522    0.8733164720573582    0.2443510399711945 Se
   0.1966457235471523    0.8733164720573582    0.2443510399711945 Se
   0.9966457235471522    0.8733164720573580    0.2443510399711945 Se
   0.8409071971813351    0.7627560890392217    0.3825808312104176 Se
   0.6409071971813349    0.7627560890392215    0.3825808312104175 Se
   0.4409071971813350    0.7627560890392215    0.3825808312104175 Se
   0.2409071971813351    0.7627560890392215    0.3825808312104175 Se
   0.0409071971813348    0.7627560890392215    0.3825808312104175 Se
   0.8075738638480017    0.5960894223725549    0.3825808312104175 Se
   0.6075738638480016    0.5960894223725550    0.3825808312104175 Se
   0.4075738638480018    0.5960894223725550    0.3825808312104175 Se
   0.2075738638480017    0.5960894223725548    0.3825808312104175 Se
   0.0075738638480017    0.5960894223725548    0.3825808312104175 Se
   0.7742405305146685    0.4294227557058883    0.3825808312104175 Se
   0.5742405305146683    0.4294227557058883    0.3825808312104175 Se
   0.3742405305146681    0.4294227557058882    0.3825808312104175 Se
   0.1742405305146682    0.4294227557058882    0.3825808312104175 Se
   0.9742405305146682    0.4294227557058882    0.3825808312104175 Se
   0.7409071971813347    0.2627560890392217    0.3825808312104175 Se
   0.5409071971813348    0.2627560890392216    0.3825808312104175 Se
   0.3409071971813347    0.2627560890392215    0.3825808312104175 Se
   0.1409071971813349    0.2627560890392215    0.3825808312104175 Se
   0.9409071971813349    0.2627560890392215    0.3825808312104175 Se
   0.7075738638480014    0.0960894223725550    0.3825808312104175 Se
   0.5075738638480014    0.0960894223725549    0.3825808312104175 Se
   0.3075738638480015    0.0960894223725549    0.3825808312104175 Se
   0.1075738638480015    0.0960894223725549    0.3825808312104175 Se
   0.9075738638480015    0.0960894223725549    0.3825808312104175 Se
   0.6742405305146684    0.9294227557058882    0.3825808312104176 Se
   0.4742405305146682    0.9294227557058882    0.3825808312104175 Se
   0.2742405305146682    0.9294227557058882    0.3825808312104175 Se
   0.0742405305146682    0.9294227557058882    0.3825808312104175 Se
   0.8742405305146683    0.9294227557058884    0.3825808312104176 Se
   0.3955997219452101    0.0953458302891231    0.8313182077635203 Se
   0.5774179037633919    0.1862549211982139    0.8313182077635203 Se
   0.7592360855815740    0.2771640121073050    0.8313182077635203 Se
   0.8046906310361190    0.0498912848345777    0.8313182077635203 Se
   0.9865088128543010    0.1408003757436685    0.8313182077635203 Se
   0.1683269946724829    0.2317094666527595    0.8313182077635203 Se
   0.3501451764906647    0.3226185575618503    0.8313182077635203 Se
   0.5319633583088466    0.4135276484709412    0.8313182077635203 Se
   0.7137815401270283    0.5044367393800321    0.8313182077635203 Se
   0.9410542673997555    0.3680731030163959    0.8313182077635203 Se
   0.1228724492179374    0.4589821939254866    0.8313182077635203 Se
   0.3046906310361190    0.5498912848345775    0.8313182077635203 Se
   0.4865088128543011    0.6408003757436687    0.8313182077635203 Se
   0.6683269946724827    0.7317094666527597    0.8313182077635203 Se
   0.8955997219452101    0.5953458302891229    0.8313182077635203 Se
   0.0774179037633919    0.6862549211982139    0.8313182077635203 Se
   0.2592360855815738    0.7771640121073050    0.8313182077635203 Se
   0.4410542673997555    0.8680731030163957    0.8313182077635203 Se
   0.6228724492179373    0.9589821939254867    0.8313182077635203 Se
   0.8501451764906647    0.8226185575618503    0.8313182077635203 Se
   0.0319633583088466    0.9135276484709414    0.8313182077635203 Se
   0.2137815401270283    0.0044367393800319    0.8313182077635203 Se
   0.6704820194100474    0.0644871793223074    0.7495056388254162 Se
   0.8523002012282292    0.1553962702313984    0.7495056388254162 Se
   0.0341183830464111    0.2463053611404892    0.7495056388254162 Se
   0.0795729285009565    0.0190326338677619    0.7495056388254162 Se
   0.2613911103191384    0.1099417247768528    0.7495056388254162 Se
   0.4432092921373203    0.2008508156859437    0.7495056388254162 Se
   0.6250274739555020    0.2917599065950346    0.7495056388254162 Se
   0.8068456557736838    0.3826689975041255    0.7495056388254162 Se
   0.9886638375918657    0.4735780884132165    0.7495056388254162 Se
   0.2159365648645930    0.3372144520495801    0.7495056388254162 Se
   0.3977547466827748    0.4281235429586709    0.7495056388254162 Se
   0.5795729285009564    0.5190326338677619    0.7495056388254162 Se
   0.7613911103191384    0.6099417247768530    0.7495056388254162 Se
   0.9432092921373202    0.7008508156859438    0.7495056388254162 Se
   0.1704820194100475    0.5644871793223073    0.7495056388254162 Se
   0.3523002012282293    0.6553962702313981    0.7495056388254162 Se
   0.5341183830464110    0.7463053611404892    0.7495056388254162 Se
   0.7159365648645930    0.8372144520495800    0.7495056388254162 Se
   0.8977547466827747    0.9281235429586711    0.7495056388254162 Se
   0.1250274739555020    0.7917599065950345    0.7495056388254162 Se
   0.3068456557736837    0.8826689975041256    0.7495056388254162 Se
   0.4886638375918655    0.9735780884132164    0.7495056388254162 Se
   0.5336737975790811    0.0792173122357940    0.6677845033197066 Se
   0.7154919793972629    0.1701264031448849    0.6677845033197066 Se
   0.8973101612154447    0.2610354940539757    0.6677845033197066 Se
   0.9427647066699900    0.0337627667812484    0.6677845033197066 Se
   0.1245828884881720    0.1246718576903393    0.6677845033197066 Se
   0.3064010703063538    0.2155809485994303    0.6677845033197066 Se
   0.4882192521245356    0.3064900395085213    0.6677845033197066 Se
   0.6700374339427175    0.3973991304176120    0.6677845033197066 Se
   0.8518556157608995    0.4883082213267033    0.6677845033197066 Se
   0.0791283430336266    0.3519445849630666    0.6677845033197066 Se
   0.2609465248518084    0.4428536758721576    0.6677845033197066 Se
   0.4427647066699900    0.5337627667812485    0.6677845033197066 Se
   0.6245828884881721    0.6246718576903395    0.6677845033197066 Se
   0.8064010703063538    0.7155809485994304    0.6677845033197067 Se
   0.0336737975790811    0.5792173122357940    0.6677845033197066 Se
   0.2154919793972629    0.6701264031448848    0.6677845033197066 Se
   0.3973101612154448    0.7610354940539760    0.6677845033197066 Se
   0.5791283430336267    0.8519445849630668    0.6677845033197066 Se
   0.7609465248518084    0.9428536758721577    0.6677845033197066 Se
   0.9882192521245357    0.8064900395085211    0.6677845033197066 Se
   0.1700374339427176    0.8973991304176123    0.6677845033197066 Se
   0.3518556157608993    0.9883082213267029    0.6677845033197066 Se
   0.6717179286519320    0.0599816430157341    0.6055580957863086 Se
   0.8535361104701138    0.1508907339248249    0.6055580957863086 Se
   0.0353542922882956    0.2417998248339159    0.6055580957863086 Se
   0.0808088377428412    0.0145270975611886    0.6055580957863086 Se
   0.2626270195610230    0.1054361884702795    0.6055580957863086 Se
   0.4444452013792046    0.1963452793793705    0.6055580957863086 Se
   0.6262633831973865    0.2872543702884613    0.6055580957863086 Se
   0.8080815650155683    0.3781634611975524    0.6055580957863086 Se
   0.9898997468337505    0.4690725521066432    0.6055580957863086 Se
   0.2171724741064775    0.3327089157430067    0.6055580957863086 Se
   0.3989906559246594    0.4236180066520975    0.6055580957863086 Se
   0.5808088377428410    0.5145270975611886    0.6055580957863086 Se
   0.7626270195610229    0.6054361884702796    0.6055580957863086 Se
   0.9444452013792048    0.6963452793793710    0.6055580957863087 Se
   0.1717179286519321    0.5599816430157341    0.6055580957863086 Se
   0.3535361104701137    0.6508907339248250    0.6055580957863086 Se
   0.5353542922882957    0.7417998248339159    0.6055580957863086 Se
   0.7171724741064773    0.8327089157430067    0.6055580957863087 Se
   0.8989906559246590    0.9236180066520978    0.6055580957863087 Se
   0.1262633831973866    0.7872543702884613    0.6055580957863086 Se
   0.3080815650155685    0.8781634611975523    0.6055580957863086 Se
   0.4898997468337502    0.9690725521066430    0.6055580957863086 Se
   0.5344435825389742    0.0747729286726763    0.5241890951556734 Se
   0.7162617643571558    0.1656820195817672    0.5241890951556734 Se
   0.8980799461753377    0.2565911104908580    0.5241890951556734 Se
   0.9435344916298831    0.0293183832181307    0.5241890951556734 Se
   0.1253526734480650    0.1202274741272216    0.5241890951556734 Se
   0.3071708552662469    0.2111365650363127    0.5241890951556734 Se
   0.4889890370844285    0.3020456559454036    0.5241890951556734 Se
   0.6708072189026103    0.3929547468544943    0.5241890951556734 Se
   0.8526254007207923    0.4838638377635855    0.5241890951556734 Se
   0.0798981279935196    0.3475002013999489    0.5241890951556734 Se
   0.2617163098117015    0.4384092923090399    0.5241890951556734 Se
   0.4435344916298832    0.5293183832181307    0.5241890951556734 Se
   0.6253526734480652    0.6202274741272218    0.5241890951556734 Se
   0.8071708552662469    0.7111365650363127    0.5241890951556734 Se
   0.0344435825389741    0.5747729286726763    0.5241890951556734 Se
   0.2162617643571560    0.6656820195817670    0.5241890951556734 Se
   0.3980799461753378    0.7565911104908583    0.5241890951556734 Se
   0.5798981279935199    0.8475002013999490    0.5241890951556734 Se
   0.7617163098117014    0.9384092923090400    0.5241890951556734 Se
   0.9889890370844288    0.8020456559454034    0.5241890951556734 Se
   0.1708072189026106    0.8929547468544946    0.5241890951556734 Se
   0.3526254007207922    0.9838638377635853    0.5241890951556734 Se
   0.3972993178110840    0.0903204389857406    0.4427015086099987 Se
   0.5791174996292658    0.1812295298948316    0.4427015086099987 Se
   0.7609356814474476    0.2721386208039224    0.4427015086099987 Se
   0.8063902269019931    0.0448658935311952    0.4427015086099987 Se
   0.9882084087201749    0.1357749844402860    0.4427015086099987 Se
   0.1700265905383568    0.2266840753493770    0.4427015086099987 Se
   0.3518447723565385    0.3175931662584679    0.4427015086099987 Se
   0.5336629541747203    0.4085022571675588    0.4427015086099987 Se
   0.7154811359929021    0.4994113480766498    0.4427015086099987 Se
   0.9427538632656293    0.3630477117130135    0.4427015086099987 Se
   0.1245720450838113    0.4539568026221042    0.4427015086099987 Se
   0.3063902269019931    0.5448658935311952    0.4427015086099987 Se
   0.4882084087201748    0.6357749844402861    0.4427015086099987 Se
   0.6700265905383569    0.7266840753493771    0.4427015086099987 Se
   0.8972993178110839    0.5903204389857406    0.4427015086099987 Se
   0.0791174996292659    0.6812295298948317    0.4427015086099987 Se
   0.2609356814474475    0.7721386208039225    0.4427015086099987 Se
   0.4427538632656294    0.8630477117130133    0.4427015086099987 Se
   0.6245720450838111    0.9539568026221040    0.4427015086099987 Se
   0.8518447723565383    0.8175931662584679    0.4427015086099987 Se
   0.0336629541747204    0.9085022571675589    0.4427015086099987 Se
   0.2154811359929022    0.9994113480766498    0.4427015086099987 Se
