Nb42 Bi56 Se168
1.0
  15.0973550219618300    0.0000000000000000    0.0000000000000009
   4.3702869809269069   14.4509764501744620    0.0000000000000009
   0.0000000000000000    0.0000000000000000   44.4624158930297497
Nb Bi Se
42 56 168
direct
   0.6365672684782846    0.6699419175756215    0.3447480443666844 Nb
   0.8746625065735224    0.5747038223375260    0.3447480443666843 Nb
   0.2556148875259034    0.6223228699565739    0.3447480443666844 Nb
   0.4937101256211416    0.5270847747184785    0.3447480443666844 Nb
   0.7318053637163798    0.4318466794803834    0.3447480443666844 Nb
   0.9699006018116179    0.3366085842422882    0.3447480443666844 Nb
   0.1127577446687606    0.4794657270994309    0.3447480443666844 Nb
   0.3508529827639988    0.3842276318613356    0.3447480443666844 Nb
   0.5889482208592369    0.2889895366232403    0.3447480443666844 Nb
   0.8270434589544752    0.1937514413851452    0.3447480443666844 Nb
   0.2079958399068559    0.2413704890041928    0.3447480443666844 Nb
   0.4460910780020940    0.1461323937660976    0.3447480443666844 Nb
   0.6841863160973320    0.0508942985280022    0.3447480443666844 Nb
   0.9222815541925699    0.9556562032899069    0.3447480443666844 Nb
   0.0651386970497130    0.0985133461470499    0.3447480443666844 Nb
   0.3032339351449511    0.0032752509089547    0.3447480443666844 Nb
   0.5413291732401893    0.9080371556708595    0.3447480443666844 Nb
   0.7794244113354273    0.8127990604327642    0.3447480443666843 Nb
   0.1603767922878083    0.8604181080518117    0.3447480443666844 Nb
   0.3984720303830466    0.7651800128137165    0.3447480443666844 Nb
   0.0175196494306654    0.7175609651946689    0.3447480443666844 Nb
   0.6365573898253768    0.6692953587675626    0.2065134900768985 Nb
   0.8746526279206148    0.5740572635294675    0.2065134900768985 Nb
   0.2556050088729958    0.6216763111485152    0.2065134900768985 Nb
   0.4937002469682338    0.5264382159104198    0.2065134900768985 Nb
   0.7317954850634719    0.4312001206723246    0.2065134900768985 Nb
   0.9698907231587099    0.3359620254342295    0.2065134900768985 Nb
   0.1127478660158528    0.4788191682913722    0.2065134900768985 Nb
   0.3508431041110910    0.3835810730532770    0.2065134900768984 Nb
   0.5889383422063291    0.2883429778151818    0.2065134900768985 Nb
   0.8270335803015673    0.1931048825770866    0.2065134900768985 Nb
   0.2079859612539482    0.2407239301961341    0.2065134900768985 Nb
   0.4460811993491863    0.1454858349580388    0.2065134900768985 Nb
   0.6841764374444245    0.0502477397199436    0.2065134900768984 Nb
   0.9222716755396622    0.9550096444818483    0.2065134900768985 Nb
   0.0651288183968054    0.0978667873389913    0.2065134900768985 Nb
   0.3032240564920434    0.0026286921008961    0.2065134900768985 Nb
   0.5413192945872813    0.9073905968628008    0.2065134900768985 Nb
   0.7794145326825193    0.8121525016247054    0.2065134900768985 Nb
   0.1603669136349006    0.8597715492437533    0.2065134900768985 Nb
   0.3984621517301387    0.7645334540056579    0.2065134900768985 Nb
   0.0175097707777577    0.7169144063866103    0.2065134900768984 Nb
   0.7487033244706451    0.6280775654826654    0.7944001694220465 Bi
   0.2487033244706447    0.6280775654826654    0.7944001694220465 Bi
   0.5344176101849307    0.4852204226255223    0.7944001694220465 Bi
   0.8201318958992163    0.3423632797683797    0.7944001694220465 Bi
   0.0344176101849307    0.4852204226255223    0.7944001694220465 Bi
   0.3201318958992163    0.3423632797683796    0.7944001694220465 Bi
   0.6058461816135019    0.1995061369112368    0.7944001694220465 Bi
   0.8915604673277877    0.0566489940540940    0.7944001694220465 Bi
   0.1058461816135019    0.1995061369112368    0.7944001694220465 Bi
   0.3915604673277876    0.0566489940540940    0.7944001694220465 Bi
   0.6772747530420731    0.9137918511969509    0.7944001694220465 Bi
   0.1772747530420734    0.9137918511969512    0.7944001694220465 Bi
   0.4629890387563593    0.7709347083398082    0.7944001694220465 Bi
   0.9629890387563591    0.7709347083398082    0.7944001694220465 Bi
   0.5833749168905452    0.6297942950877290    0.7047369577364245 Bi
   0.0833749168905454    0.6297942950877291    0.7047369577364245 Bi
   0.3690892026048309    0.4869371522305863    0.7047369577364245 Bi
   0.6548034883191166    0.3440800093734434    0.7047369577364245 Bi
   0.8690892026048311    0.4869371522305861    0.7047369577364245 Bi
   0.1548034883191166    0.3440800093734434    0.7047369577364245 Bi
   0.4405177740334023    0.2012228665163006    0.7047369577364245 Bi
   0.7262320597476879    0.0583657236591577    0.7047369577364245 Bi
   0.9405177740334023    0.2012228665163006    0.7047369577364245 Bi
   0.2262320597476880    0.0583657236591578    0.7047369577364245 Bi
   0.5119463454619736    0.9155085808020148    0.7047369577364245 Bi
   0.0119463454619737    0.9155085808020149    0.7047369577364245 Bi
   0.2976606311762595    0.7726514379448720    0.7047369577364245 Bi
   0.7976606311762594    0.7726514379448719    0.7047369577364245 Bi
   0.5810470891930433    0.6342925980397880    0.5688586317166682 Bi
   0.0810470891930432    0.6342925980397882    0.5688586317166682 Bi
   0.3667613749073289    0.4914354551826453    0.5688586317166682 Bi
   0.6524756606216144    0.3485783123255025    0.5688586317166682 Bi
   0.8667613749073289    0.4914354551826452    0.5688586317166682 Bi
   0.1524756606216146    0.3485783123255026    0.5688586317166682 Bi
   0.4381899463359003    0.2057211694683597    0.5688586317166682 Bi
   0.7239042320501861    0.0628640266112169    0.5688586317166682 Bi
   0.9381899463359004    0.2057211694683597    0.5688586317166682 Bi
   0.2239042320501861    0.0628640266112169    0.5688586317166682 Bi
   0.5096185177644715    0.9200068837540739    0.5688586317166682 Bi
   0.0096185177644718    0.9200068837540740    0.5688586317166682 Bi
   0.2953328034787576    0.7771497408969310    0.5688586317166682 Bi
   0.7953328034787575    0.7771497408969312    0.5688586317166682 Bi
   0.9158387468368567    0.6344055794778369    0.4795310425214356 Bi
   0.4158387468368565    0.6344055794778369    0.4795310425214357 Bi
   0.7015530325511421    0.4915484366206941    0.4795310425214357 Bi
   0.9872673182654278    0.3486912937635512    0.4795310425214357 Bi
   0.2015530325511422    0.4915484366206941    0.4795310425214357 Bi
   0.4872673182654279    0.3486912937635513    0.4795310425214357 Bi
   0.7729816039797135    0.2058341509064084    0.4795310425214357 Bi
   0.0586958896939993    0.0629770080492657    0.4795310425214357 Bi
   0.2729816039797137    0.2058341509064085    0.4795310425214357 Bi
   0.5586958896939993    0.0629770080492656    0.4795310425214357 Bi
   0.8444101754082849    0.9201198651921227    0.4795310425214357 Bi
   0.3444101754082851    0.9201198651921229    0.4795310425214357 Bi
   0.6301244611225707    0.7772627223349799    0.4795310425214356 Bi
   0.1301244611225707    0.7772627223349798    0.4795310425214357 Bi
   0.5254132523996816    0.7803961710938414    0.1686817922364798 Se
   0.7635084904949194    0.6851580758557458    0.1686817922364798 Se
   0.1444608714473004    0.7327771234747937    0.1686817922364798 Se
   0.3825561095425384    0.6375390282366984    0.1686817922364798 Se
   0.6206513476377765    0.5423009329986035    0.1686817922364798 Se
   0.8587465857330150    0.4470628377605081    0.1686817922364798 Se
   0.0016037285901577    0.5899199806176507    0.1686817922364798 Se
   0.2396989666853958    0.4946818853795555    0.1686817922364798 Se
   0.4777942047806338    0.3994437901414604    0.1686817922364798 Se
   0.7158894428758720    0.3042056949033650    0.1686817922364798 Se
   0.0968418238282529    0.3518247425224127    0.1686817922364798 Se
   0.3349370619234910    0.2565866472843175    0.1686817922364798 Se
   0.5730323000187291    0.1613485520462222    0.1686817922364798 Se
   0.8111275381139671    0.0661104568081269    0.1686817922364798 Se
   0.9539846809711100    0.2089675996652698    0.1686817922364798 Se
   0.1920799190663481    0.1137295044271746    0.1686817922364798 Se
   0.4301751571615862    0.0184914091890793    0.1686817922364798 Se
   0.6682703952568244    0.9232533139509842    0.1686817922364798 Se
   0.0492227762092052    0.9708723615700318    0.1686817922364798 Se
   0.2873180143044435    0.8756342663319365    0.1686817922364798 Se
   0.9063656333520624    0.8280152187128889    0.1686817922364798 Se
   0.6524211362866045    0.7969261138658029    0.3069115334886654 Se
   0.8905163743818428    0.7016880186277077    0.3069115334886654 Se
   0.2714687553342238    0.7493070662467556    0.3069115334886655 Se
   0.5095639934294618    0.6540689710086602    0.3069115334886655 Se
   0.7476592315246997    0.5588308757705648    0.3069115334886655 Se
   0.9857544696199378    0.4635927805324697    0.3069115334886654 Se
   0.1286116124770809    0.6064499233896125    0.3069115334886654 Se
   0.3667068505723189    0.5112118281515173    0.3069115334886655 Se
   0.6048020886675572    0.4159737329134221    0.3069115334886655 Se
   0.8428973267627953    0.3207356376753268    0.3069115334886655 Se
   0.2238497077151762    0.3683546852943745    0.3069115334886654 Se
   0.4619449458104141    0.2731165900562793    0.3069115334886654 Se
   0.7000401839056523    0.1778784948181840    0.3069115334886655 Se
   0.9381354220008904    0.0826403995800887    0.3069115334886654 Se
   0.0809925648580333    0.2254975424372315    0.3069115334886654 Se
   0.3190878029532714    0.1302594471991363    0.3069115334886654 Se
   0.5571830410485095    0.0350213519610411    0.3069115334886654 Se
   0.7952782791437476    0.9397832567229458    0.3069115334886654 Se
   0.1762306600961285    0.9874023043419935    0.3069115334886654 Se
   0.4143258981913664    0.8921642091038982    0.3069115334886655 Se
   0.0333735172389857    0.8445451614848505    0.3069115334886655 Se
   0.5254425676347558    0.7804532135858966    0.2443510399711946 Se
   0.7635378057299935    0.6852151183478011    0.2443510399711946 Se
   0.1444901866823748    0.7328341659668489    0.2443510399711946 Se
   0.3825854247776129    0.6375960707287536    0.2443510399711946 Se
   0.6206806628728511    0.5423579754906585    0.2443510399711946 Se
   0.8587759009680892    0.4471198802525633    0.2443510399711946 Se
   0.0016330438252320    0.5899770231097059    0.2443510399711946 Se
   0.2397282819204702    0.4947389278716108    0.2443510399711945 Se
   0.4778235200157085    0.3995008326335157    0.2443510399711946 Se
   0.7159187581109463    0.3042627373954202    0.2443510399711946 Se
   0.0968711390633273    0.3518817850144678    0.2443510399711946 Se
   0.3349663771585654    0.2566436897763726    0.2443510399711946 Se
   0.5730616152538036    0.1614055945382774    0.2443510399711945 Se
   0.8111568533490416    0.0661674993001821    0.2443510399711946 Se
   0.9540139962061844    0.2090246421573250    0.2443510399711946 Se
   0.1921092343014225    0.1137865469192298    0.2443510399711946 Se
   0.4302044723966607    0.0185484516811347    0.2443510399711946 Se
   0.6682997104918986    0.9233103564430393    0.2443510399711946 Se
   0.0492520914442797    0.9709294040620869    0.2443510399711946 Se
   0.2873473295395179    0.8756913088239916    0.2443510399711946 Se
   0.9063949485871370    0.8280722612049440    0.2443510399711946 Se
   0.6524609409810604    0.7969734046256109    0.3825808312104176 Se
   0.8905561790762981    0.7017353093875155    0.3825808312104176 Se
   0.2715085600286790    0.7493543570065632    0.3825808312104176 Se
   0.5096037981239173    0.6541162617684679    0.3825808312104176 Se
   0.7476990362191556    0.5588781665303728    0.3825808312104176 Se
   0.9857942743143935    0.4636400712922777    0.3825808312104176 Se
   0.1286514171715365    0.6064972141494203    0.3825808312104176 Se
   0.3667466552667746    0.5112591189113251    0.3825808312104176 Se
   0.6048418933620126    0.4160210236732300    0.3825808312104176 Se
   0.8429371314572507    0.3207829284351346    0.3825808312104176 Se
   0.2238895124096317    0.3684019760541822    0.3825808312104176 Se
   0.4619847505048698    0.2731638808160871    0.3825808312104176 Se
   0.7000799886001079    0.1779257855779918    0.3825808312104176 Se
   0.9381752266953458    0.0826876903398965    0.3825808312104176 Se
   0.0810323695524888    0.2255448331970394    0.3825808312104176 Se
   0.3191276076477270    0.1303067379589442    0.3825808312104176 Se
   0.5572228457429650    0.0350686427208489    0.3825808312104176 Se
   0.7953180838382031    0.9398305474827537    0.3825808312104176 Se
   0.1762704647905840    0.9874495951018013    0.3825808312104176 Se
   0.4143657028858221    0.8922114998637061    0.3825808312104176 Se
   0.0334133219334412    0.8445924522446584    0.3825808312104176 Se
   0.5811921827692109    0.6281109303636863    0.8313182077635204 Se
   0.0811921827692109    0.6281109303636865    0.8313182077635204 Se
   0.3669064684834966    0.4852537875065436    0.8313182077635204 Se
   0.6526207541977822    0.3423966446494008    0.8313182077635204 Se
   0.8669064684834965    0.4852537875065435    0.8313182077635204 Se
   0.1526207541977823    0.3423966446494008    0.8313182077635204 Se
   0.4383350399120680    0.1995395017922580    0.8313182077635204 Se
   0.7240493256263535    0.0566823589351151    0.8313182077635204 Se
   0.9383350399120680    0.1995395017922579    0.8313182077635204 Se
   0.2240493256263538    0.0566823589351151    0.8313182077635204 Se
   0.5097636113406392    0.9138252160779722    0.8313182077635204 Se
   0.0097636113406394    0.9138252160779723    0.8313182077635204 Se
   0.2954778970549252    0.7709680732208293    0.8313182077635204 Se
   0.7954778970549248    0.7709680732208293    0.8313182077635204 Se
   0.9169787646715353    0.6285174391117582    0.7495056388254162 Se
   0.4169787646715357    0.6285174391117585    0.7495056388254162 Se
   0.7026930503858213    0.4856602962546156    0.7495056388254162 Se
   0.9884073361001068    0.3428031533974728    0.7495056388254162 Se
   0.2026930503858214    0.4856602962546157    0.7495056388254162 Se
   0.4884073361001069    0.3428031533974729    0.7495056388254162 Se
   0.7741216218143927    0.1999460105403300    0.7495056388254162 Se
   0.0598359075286783    0.0570888676831873    0.7495056388254162 Se
   0.2741216218143928    0.1999460105403300    0.7495056388254162 Se
   0.5598359075286785    0.0570888676831872    0.7495056388254162 Se
   0.8455501932429638    0.9142317248260443    0.7495056388254162 Se
   0.3455501932429642    0.9142317248260443    0.7495056388254162 Se
   0.6312644789572500    0.7713745819689015    0.7495056388254162 Se
   0.1312644789572499    0.7713745819689015    0.7495056388254162 Se
   0.7494996982679996    0.6291227284845566    0.6677845033197067 Se
   0.2494996982679999    0.6291227284845566    0.6677845033197067 Se
   0.5352139839822855    0.4862655856274138    0.6677845033197067 Se
   0.8209282696965711    0.3434084427702709    0.6677845033197067 Se
   0.0352139839822855    0.4862655856274138    0.6677845033197067 Se
   0.3209282696965712    0.3434084427702709    0.6677845033197067 Se
   0.6066425554108569    0.2005512999131282    0.6677845033197067 Se
   0.8923568411251427    0.0576941570559854    0.6677845033197067 Se
   0.1066425554108568    0.2005512999131281    0.6677845033197067 Se
   0.3923568411251425    0.0576941570559854    0.6677845033197067 Se
   0.6780711268394284    0.9148370141988424    0.6677845033197067 Se
   0.1780711268394284    0.9148370141988424    0.6677845033197067 Se
   0.4637854125537140    0.7719798713416995    0.6677845033197067 Se
   0.9637854125537141    0.7719798713416995    0.6677845033197067 Se
   0.9159931986644885    0.6341337130427975    0.6055580957863087 Se
   0.4159931986644883    0.6341337130427978    0.6055580957863087 Se
   0.7017074843787739    0.4912765701856549    0.6055580957863087 Se
   0.9874217700930594    0.3484194273285121    0.6055580957863087 Se
   0.2017074843787739    0.4912765701856549    0.6055580957863087 Se
   0.4874217700930595    0.3484194273285121    0.6055580957863087 Se
   0.7731360558073452    0.2055622844713693    0.6055580957863087 Se
   0.0588503415216309    0.0627051416142266    0.6055580957863087 Se
   0.2731360558073453    0.2055622844713691    0.6055580957863087 Se
   0.5588503415216310    0.0627051416142264    0.6055580957863087 Se
   0.8445646272359164    0.9198479987570837    0.6055580957863087 Se
   0.3445646272359167    0.9198479987570836    0.6055580957863087 Se
   0.6302789129502024    0.7769908558999408    0.6055580957863087 Se
   0.1302789129502026    0.7769908558999408    0.6055580957863087 Se
   0.7479497740375093    0.6347269666428662    0.5241890951556734 Se
   0.2479497740375092    0.6347269666428663    0.5241890951556734 Se
   0.5336640597517950    0.4918698237857233    0.5241890951556734 Se
   0.8193783454660805    0.3490126809285806    0.5241890951556734 Se
   0.0336640597517950    0.4918698237857233    0.5241890951556734 Se
   0.3193783454660807    0.3490126809285806    0.5241890951556734 Se
   0.6050926311803662    0.2061555380714377    0.5241890951556734 Se
   0.8908069168946520    0.0632983952142949    0.5241890951556734 Se
   0.1050926311803663    0.2061555380714377    0.5241890951556734 Se
   0.3908069168946521    0.0632983952142948    0.5241890951556734 Se
   0.6765212026089377    0.9204412523571519    0.5241890951556734 Se
   0.1765212026089377    0.9204412523571520    0.5241890951556734 Se
   0.4622354883232235    0.7775841095000090    0.5241890951556734 Se
   0.9622354883232236    0.7775841095000090    0.5241890951556734 Se
   0.5805057252805446    0.6343293483443391    0.4427015086099988 Se
   0.0805057252805445    0.6343293483443391    0.4427015086099988 Se
   0.3662200109948303    0.4914722054871961    0.4427015086099988 Se
   0.6519342967091158    0.3486150626300533    0.4427015086099988 Se
   0.8662200109948303    0.4914722054871961    0.4427015086099987 Se
   0.1519342967091158    0.3486150626300534    0.4427015086099988 Se
   0.4376485824234014    0.2057579197729106    0.4427015086099988 Se
   0.7233628681376872    0.0629007769157677    0.4427015086099988 Se
   0.9376485824234015    0.2057579197729105    0.4427015086099988 Se
   0.2233628681376873    0.0629007769157678    0.4427015086099988 Se
   0.5090771538519729    0.9200436340586249    0.4427015086099988 Se
   0.0090771538519730    0.9200436340586249    0.4427015086099988 Se
   0.2947914395662588    0.7771864912014820    0.4427015086099988 Se
   0.7947914395662590    0.7771864912014821    0.4427015086099987 Se
