Nb38 Bi52 Se154
1.0
  15.0973550213515413    0.0000000000000000    0.0000000000000009
   7.5486775104850574   13.0746929792577991    0.0000000000000009
   0.0000000000000000    0.0000000000000000   49.9893053307188922
Nb Bi Se
38 52 154
direct
   0.2066554538361902    0.4130868231693425    0.3577873594130846 Nb
   0.3173340480177134    0.5645633455722661    0.3573904061481212 Nb
   0.4115641423884767    0.7330214884646693    0.3586704542345364 Nb
   0.1600198880268179    0.8305214524657626    0.3582800013225367 Nb
   0.2593395137942337    0.9937723031649928    0.3560279736123625 Nb
   0.3662326015038539    0.1423629109472327    0.3562456152544338 Nb
   0.4705893238690343    0.3060803048410727    0.3590059069517122 Nb
   0.5819596628414676    0.4632337455868767    0.3549831454814668 Nb
   0.6846819691366662    0.6206373801895012    0.3572106170513730 Nb
   0.7873717483583449    0.7838334534477686    0.3567418034952116 Nb
   0.5129345459655404    0.8909494195341394    0.3589580921525619 Nb
   0.6191834352369924    0.0552959509146948    0.3573115877896125 Nb
   0.7385147731251304    0.1969858251367551    0.3561892622009215 Nb
   0.8503644436974037    0.3603313729403630    0.3575528554540804 Nb
   0.9543545773723466    0.5163509930649565    0.3573249440434003 Nb
   0.0537358783774890    0.6732799527612177    0.3584624166102194 Nb
   0.8938052043519973    0.9440007493459917    0.3572223367176560 Nb
   0.9942623455300847    0.0947370901143250    0.3596310793825664 Nb
   0.1087013815582686    0.2539426803333416    0.3562305594992996 Nb
   0.2071232202361197    0.4047933806896105    0.2354538877345391 Nb
   0.3138241973556457    0.5655562926209259    0.2352549636564110 Nb
   0.4159790706315255    0.7297869841413909    0.2330825625536576 Nb
   0.1542645756431366    0.8398709713283889    0.2353567817153441 Nb
   0.2611376361098380    0.9931183333791722    0.2336750550465448 Nb
   0.3630861567215607    0.1559307186983239    0.2344975859974502 Nb
   0.4782975795098798    0.3038327226757783    0.2338564824557382 Nb
   0.5797222460127621    0.4604659944452739    0.2334679019684355 Nb
   0.6844462677488217    0.6273714048724428    0.2326689891402891 Nb
   0.7900415616167498    0.7775480055623246    0.2345181647151532 Nb
   0.5160183363393326    0.8819213972260488    0.2338515943010671 Nb
   0.6312413132126836    0.0355302533465449    0.2331973496868507 Nb
   0.7308091658534007    0.2062174856656220    0.2336164738159704 Nb
   0.8374795824900088    0.3582356606116460    0.2330869935455880 Nb
   0.9475647002759406    0.5273059834558039    0.2349689137300235 Nb
   0.0526811188140176    0.6738903258459290    0.2326034952293992 Nb
   0.8917832644641296    0.9393964339748827    0.2332629549367550 Nb
   1.0037564760111739    0.0951548038843831    0.2338431412580249 Nb
   0.0970120975570722    0.2623224318076891    0.2350624466682286 Nb
   0.8510910189668105    0.5203280193494013    0.7665406832790955 Bi
   0.5976092250160459    0.4579281622338754    0.7659068649116996 Bi
   0.9241688880206873    0.2218592584734676    0.7651800678515183 Bi
   0.3855706582983889    0.3720012026807537    0.7668643702577524 Bi
   0.6916271369995209    0.1436303614216640    0.7649246568688912 Bi
  -0.0038840993557420    0.9188401188298669    0.7666083170532668 Bi
   0.1547832700999831    0.2910015865293691    0.7668197062427977 Bi
   0.4712193109612313    0.0621957476797850    0.7674271093490113 Bi
   0.7690386220613042    0.8413275435412421    0.7689291057455236 Bi
   0.2331278592561426    0.9891500368668449    0.7672805561944875 Bi
   0.5369316100360757    0.7546112697210757    0.7671638219765047 Bi
   0.3115094445649972    0.6735737189611046    0.7664777755335426 Bi
   0.0781487410608647    0.6086991803290389    0.7668282254327613 Bi
   0.8973997122170976    0.6583196535276868    0.6867981698920158 Bi
   0.6713281775367083    0.5785906438042008    0.6876533595927158 Bi
   0.9745618790350009    0.3535994584601370    0.6876584133949574 Bi
   0.4369312262292406    0.4996291158683622    0.6870426684590060 Bi
   0.7468793107870683    0.2699899400382357    0.6885536172229439 Bi
   0.0550378021869134    0.0491543382395098    0.6867808285767013 Bi
   0.2064482783464458    0.4248125300671385    0.6879267126279879 Bi
   0.5172375814237538    0.1862511858883081    0.6891189156563103 Bi
   0.8229374547150664    0.9666854177037728    0.6870029229488243 Bi
   0.2893316831070391    0.1118199149358639    0.6870149514548203 Bi
   0.5978680730376217    0.8768349903959676    0.6910480603707430 Bi
   0.3575078314860916    0.8089117836497904    0.6868774306892517 Bi
   0.1308634785406808    0.7360743897166502    0.6883629891726807 Bi
   0.9017791448308221    0.6572086793899107    0.5681141643447063 Bi
   0.6643042394738509    0.5849608232638746    0.5645649849951967 Bi
   0.9626505521732334    0.3584654667295049    0.5664312890399100 Bi
   0.4304023924724537    0.5069796075478286    0.5669785074906912 Bi
   0.7393684785790310    0.2846811994142365    0.5643054225599424 Bi
   0.0440459351703395    0.0493615847126811    0.5664567906851781 Bi
   0.2070654885684756    0.4250500771959939    0.5666978741047298 Bi
   0.5132438473534775    0.2014090272552383    0.5659201570054377 Bi
   0.8162952278944986    0.9696140271585145    0.5653442836378539 Bi
   0.2837566644770264    0.1190991473069550    0.5654329879192438 Bi
   0.5855565890516220    0.9002514325690543    0.5674570644564779 Bi
   0.3514358928614297    0.8189860124829117    0.5668912768169012 Bi
   0.1372637100523734    0.7383222276508640    0.5666470311795553 Bi
   0.7043964260116083    0.7220999649396411    0.4863944824774870 Bi
   0.4903524636424472    0.6368899057001449    0.4871732894762891 Bi
   0.7946396905105014    0.4074072081338238    0.4868268190030006 Bi
   0.2507452928637045    0.5594820305046219    0.4866719495146117 Bi
   0.5600491182077905    0.3343819589987632    0.4850756406515613 Bi
   0.8645033521877051    0.1001404068069637    0.4870801894171579 Bi
   0.0260049189793923    0.4897272677841726    0.4872382846494611 Bi
   0.3363216490871547    0.2494251200847977    0.4874814936349627 Bi
   0.6441168559310764    0.0210864939352184    0.4845011028182464 Bi
   0.1074446718002088    0.1747577952854326    0.4854973173009887 Bi
   0.4139231467075427    0.9439290959225825    0.4863033222605500 Bi
   0.1735822270908782    0.8690856309865354    0.4880211023815335 Bi
   0.9419102740362326    0.7943169588249774    0.4865078640124954 Bi
   0.0948145643362781    0.3816057592017627    0.2006450812111426 Se
   0.1993761201303756    0.5505215838422213    0.1994798370088071 Se
   0.3057076626157694    0.7048561071971219    0.1975784449701574 Se
   0.0306684230633386    0.8160831652492766    0.2001247839241363 Se
   0.1482647661318230    0.9604756541178671    0.1996680786299803 Se
   0.2468566471793981    0.1286551835265648    0.1990713600030652 Se
   0.3483102367741415    0.2875283110108398    0.2007971891652614 Se
   0.4569881805352452    0.4420485401168702    0.2008480989779098 Se
   0.5499056542776839    0.6079721379078655    0.1999241252191436 Se
   0.6683746779348017    0.7540998041384862    0.1990921579931973 Se
   0.4034152534692505    0.8583523933894777    0.1997231540833997 Se
   0.5099109670186490    0.0260712769268578    0.1973419766754681 Se
   0.6044649903475324    0.1838797320746978    0.2006716079928861 Se
   0.7146703393784278    0.3424358273006775    0.1994039564768865 Se
   0.8228679638171584    0.5029280567784592    0.2005568967283021 Se
   0.9297684736061873    0.6477055887798988    0.1987456433751628 Se
   0.7728594098955376    0.9237440014752301    0.1985061303205212 Se
   0.8768942048054315    0.0729476926459379    0.1990017914746754 Se
   0.9797628348061035    0.2352927637981211    0.1983495109473055 Se
   0.0720059327414401    0.5277196226581544    0.3231617558300955 Se
   0.1763843775562611    0.6859542039769169    0.3219162341336477 Se
   0.2770903936751326    0.8439515598430174    0.3229963636494146 Se
   0.0180095959413578    0.9555273503088590    0.3217737216574489 Se
   0.1234544048407809    0.1136762382302379    0.3231402349925268 Se
   0.2230260497372159    0.2689954105130524    0.3225086385088315 Se
   0.3270227391213775    0.4305804941695120    0.3204196464152210 Se
   0.4422730161561865    0.5852129549796669    0.3251966617826091 Se
   0.5426198187057775    0.7437395539120569    0.3206105159015807 Se
   0.6396232176801812    0.9053314645960697    0.3201840912543679 Se
   0.3818123816630556    0.0064504210235156    0.3226954035020628 Se
   0.4853097329230108    0.1700483045363412    0.3244135436550740 Se
   0.5972891675608544    0.3152181610411917    0.3230854132202205 Se
   0.7074282489374285    0.4760755927079387    0.3225364211476019 Se
   0.8154017736463168    0.6356868588802926    0.3223467387634809 Se
   0.9084191540616007    0.7941017964215595    0.3222426729550239 Se
   0.7479352256195518    0.0598751979958862    0.3254954281004162 Se
   0.8537625533560027    0.2286055902664358    0.3218215258755899 Se
   0.9627737666033058    0.3731795505738505    0.3216425465567789 Se
   0.0919109978612984    0.3839234198006589    0.2669131069520196 Se
   0.1903304163734080    0.5504789570494598    0.2668118765567315 Se
   0.2882329993752090    0.7092770928085180    0.2679659721822872 Se
   0.0384330136371703    0.8097696690655531    0.2669444052065517 Se
   0.1334866650520158    0.9773647779080520    0.2653410098016730 Se
   0.2389994745269512    0.1252411840937581    0.2695801993927360 Se
   0.3476183457027777    0.2850592548094490    0.2684766245341779 Se
   0.4538987063091196    0.4446703627447563    0.2670630701216728 Se
   0.5633535647699663    0.5956508486059524    0.2637480994092606 Se
   0.6538241913618015    0.7699245321367442    0.2657290400186129 Se
   0.3996565081503788    0.8695129137179163    0.2675300999240212 Se
   0.5084786734402297    0.0225883412414009    0.2682342324678228 Se
   0.6205182400001413    0.1781737261952479    0.2658043318656539 Se
   0.7205559965133125    0.3350068923054698    0.2661709157054523 Se
   0.8156886896255062    0.4968062053540375    0.2660500343410830 Se
   0.9289168964849027    0.6525327870447002    0.2699814652108468 Se
   0.7646227659397834    0.9198787838917756    0.2667104666412341 Se
   0.8779228027492796    0.0779563348955853    0.2686488452652809 Se
   0.9868669611936137    0.2296758134096824    0.2650979419512862 Se
   0.0812095030526141    0.5246627434627481    0.3904263831213471 Se
   0.1732848633073141    0.6891484550522334    0.3901006822796940 Se
   0.2845580598204858    0.8463572688010477    0.3900665549882244 Se
   0.0205444413541958    0.9442527521961050    0.3897007561198811 Se
   0.1294523003558172    0.1138135230872199    0.3885131705480585 Se
   0.2325428628850898    0.2631249596465630    0.3910432566890903 Se
   0.3318636275754570    0.4250333582237666    0.3904533364496989 Se
   0.4463842373037839    0.5782798521313534    0.3906342306590960 Se
   0.5403375088424904    0.7427253245661797    0.3888943590229703 Se
   0.6464707146069960    0.9100082013942961    0.3878498220940932 Se
   0.3832171779783311    0.0127432688961746    0.3905452809162964 Se
   0.4894156586916174    0.1736762425098512    0.3906395291650993 Se
   0.5913158379836926    0.3206202683419654    0.3914205813063458 Se
   0.7012572608806770    0.4806726832301982    0.3930293615194722 Se
   0.7990077277239140    0.6446458001917805    0.3907996982041544 Se
   0.9083060721947323    0.7930559177762199    0.3905715057343560 Se
   0.7452810718473276    0.0596860676005267    0.3910976065754569 Se
   0.8506604163375311    0.2253392496874542    0.3914352589582651 Se
   0.9607506923492849    0.3681579113580598    0.3890778532861653 Se
   0.8847384396106946    0.6675403332143262    0.8007038001726913 Se
   0.6642846381419315    0.5701896581963630    0.8003521570272544 Se
   0.9737183716077334    0.3574496811422686    0.8006594579157921 Se
   0.4300838770613314    0.5019535233237923    0.8019957026231272 Se
   0.7406322139531808    0.2734804321499781    0.8012007696976470 Se
   0.0592579318568389    0.0394074079671707    0.7999776784863056 Se
   0.2013579812706845    0.4212170514454568    0.8009140498644338 Se
   0.5175548135943357    0.1833009309168323    0.8004088782658799 Se
   0.8149883523982638    0.9663148934629551    0.7994786869400334 Se
   0.2839625183102556    0.1163155995147534    0.8006271331665847 Se
   0.5857926472718805    0.8879306951414163    0.8001368744966434 Se
   0.3519712666135087    0.8155317392807283    0.7993710738771296 Se
   0.1257726285496583    0.7326126661197416    0.7994318988838520 Se
   0.7150063013668183    0.7114463527986592    0.7280140103993984 Se
   0.4858694403585158    0.6294731622485484    0.7279134501161448 Se
   0.7951174131918564    0.3955009660446810    0.7272946433817193 Se
   0.2536956059606339    0.5503347239940369    0.7259396074677640 Se
   0.5650417855442745    0.3215232785763164    0.7279239130479875 Se
   0.8741087950401150    0.0914387376873747    0.7275959901552700 Se
   0.0314541016625668    0.4723323699701573    0.7269632683224576 Se
   0.3269512496587916    0.2504797480062568    0.7275970081153190 Se
   0.6315839476984049    0.0195615652735578    0.7294302248449076 Se
   0.0985235829663039    0.1658087058905612    0.7254372589296797 Se
   0.4130311518793909    0.9467958858929696    0.7264775428710289 Se
   0.1765324786665774    0.8625600316475129    0.7289762911732106 Se
   0.9500913034688161    0.7828524559140336    0.7267360703530802 Se
   0.8523697730257774    0.5306885659856977    0.6540341812447429 Se
   0.6148614090096980    0.4463940640692662    0.6539618314739269 Se
   0.9258073558443404    0.2246884121788768    0.6546685602117397 Se
   0.3844101655242896    0.3862384879110986    0.6540313300821446 Se
   0.6879951515251452    0.1483640020095926    0.6541159251148189 Se
  -0.0013784297539005    0.9213794962450740    0.6536232953300594 Se
   0.1489111730699023    0.2955958057752523    0.6548114400767948 Se
   0.4589038628782496    0.0724041822490077    0.6544124879484678 Se
   0.7772401124229782    0.8308300201911073    0.6542494986215242 Se
   0.2328698870545664    0.9916026053024898    0.6542951605037640 Se
   0.5379922303283140    0.7583559511103913    0.6539656869002217 Se
   0.3097124755688927    0.6814178904028089    0.6556886191044335 Se
   0.0704386755874112    0.6101892310337976    0.6544559509526159 Se
   0.7215307399094975    0.7098083278800311    0.5987051107979267 Se
   0.4806023576939554    0.6350499831054871    0.6003887069282660 Se
   0.7918346966264025    0.3986843410049821    0.6001407194437091 Se
   0.2478472880503690    0.5658935398496119    0.5989673138110588 Se
   0.5594439091978963    0.3384660577688214    0.6008840624561504 Se
   0.8686605035902341    0.1044808138151282    0.5984703413534830 Se
   0.0229064711910005    0.4823836973694179    0.5992924855197275 Se
   0.3357988253164052    0.2450905731651900    0.5995588016216471 Se
   0.6467326123610977    0.0211553579309412    0.5971581141933692 Se
   0.1002194570216994    0.1825924254648074    0.5978714727319190 Se
   0.4185238010785362    0.9389112980696823    0.6002013445807693 Se
   0.1758302604360267    0.8725428570048345    0.5997270042185906 Se
   0.9428761162890960    0.7953769062989547    0.5973614773962874 Se
   0.8419777277170514    0.5385234446552658    0.5263326228619161 Se
   0.6065054044092211    0.4521368773733139    0.5244202917525587 Se
   0.9211906662450213    0.2241023957920103    0.5261111848849925 Se
   0.3842019464723080    0.3776344629388341    0.5272872172937038 Se
   0.6906666003579935    0.1480001389155966    0.5270762392155641 Se
   0.9940734253585850    0.9177195950399050    0.5279142004800442 Se
   0.1594144817008840    0.2953997650070998    0.5269743853598164 Se
   0.4550966636054913    0.0700995776248772    0.5276287354438658 Se
   0.7789983011952305    0.8350062312878702    0.5279186871803362 Se
   0.2282934696702934    0.9934821788508712    0.5269394871545338 Se
   0.5416142107701455    0.7635648165609012    0.5269669571391158 Se
   0.3145781741716379    0.6762624469608430    0.5283255237291710 Se
   0.0755830784432568    0.6147361737883978    0.5297058561867538 Se
   0.8973966033857991    0.6610053368716289    0.4549407646638458 Se
   0.6678432731702545    0.5901387318719723    0.4532812955700769 Se
   0.9708834104294944    0.3587663475668581    0.4548688607989037 Se
   0.4298886736440965    0.5105276851509420    0.4548115893137230 Se
   0.7362127591711684    0.2784014367936883    0.4534407220842205 Se
   0.0553603557262420    0.0409012584412796    0.4533769158769397 Se
   0.1927270920631323    0.4329319288845569    0.4561459526372064 Se
   0.5050353891671023    0.2001149268700390    0.4556292923663536 Se
   0.8141892332669741    0.9704343486077680    0.4534344767954048 Se
   0.2719376756159856    0.1280072252239605    0.4540441476135536 Se
   0.5914362349683348    0.8870773971809144    0.4551694051152386 Se
   0.3547687887062077    0.8198994974831858    0.4551458735234821 Se
   0.1340939521324123    0.7339704119563373    0.4544836836949186 Se
