Nb150 Bi208 Se612
1.0
  29.9954028477925370    0.0000000000000000    0.0000000000000018
  14.9977014238962685   25.9767808645990499    0.0000000000000018
   0.0000000000000000    0.0000000000000000   49.9893053307188922
Nb Bi Se
150 208 612
direct
   0.0813127727642445    0.7065311808118602    0.3566429020965912 Nb
   0.1479794394309110    0.7731978474785269    0.3566429020965912 Nb
   0.2146461060975777    0.8398645141451937    0.3566429020965912 Nb
   0.0813127727642444    0.5065311808118602    0.3566429020965912 Nb
   0.1479794394309111    0.5731978474785270    0.3566429020965912 Nb
   0.2146461060975777    0.6398645141451937    0.3566429020965912 Nb
   0.2813127727642445    0.7065311808118602    0.3566429020965912 Nb
   0.3479794394309111    0.7731978474785269    0.3566429020965912 Nb
   0.4146461060975777    0.8398645141451937    0.3566429020965912 Nb
   0.0813127727642445    0.3065311808118603    0.3566429020965912 Nb
   0.1479794394309111    0.3731978474785269    0.3566429020965912 Nb
   0.2146461060975779    0.4398645141451935    0.3566429020965912 Nb
   0.2813127727642444    0.5065311808118602    0.3566429020965912 Nb
   0.3479794394309111    0.5731978474785269    0.3566429020965912 Nb
   0.4146461060975777    0.6398645141451936    0.3566429020965912 Nb
   0.4813127727642446    0.7065311808118602    0.3566429020965912 Nb
   0.5479794394309111    0.7731978474785269    0.3566429020965912 Nb
   0.6146461060975777    0.8398645141451937    0.3566429020965912 Nb
   0.0813127727642444    0.1065311808118603    0.3566429020965912 Nb
   0.1479794394309111    0.1731978474785269    0.3566429020965912 Nb
   0.2146461060975778    0.2398645141451936    0.3566429020965912 Nb
   0.2813127727642444    0.3065311808118603    0.3566429020965912 Nb
   0.3479794394309111    0.3731978474785269    0.3566429020965912 Nb
   0.4146461060975778    0.4398645141451935    0.3566429020965912 Nb
   0.4813127727642444    0.5065311808118602    0.3566429020965912 Nb
   0.5479794394309112    0.5731978474785269    0.3566429020965912 Nb
   0.6146461060975779    0.6398645141451936    0.3566429020965912 Nb
   0.6813127727642445    0.7065311808118602    0.3566429020965912 Nb
   0.7479794394309112    0.7731978474785269    0.3566429020965912 Nb
   0.8146461060975777    0.8398645141451937    0.3566429020965912 Nb
   0.0813127727642444    0.9065311808118601    0.3566429020965912 Nb
   0.1479794394309111    0.9731978474785269    0.3566429020965912 Nb
   0.2146461060975778    0.0398645141451936    0.3566429020965912 Nb
   0.2813127727642444    0.1065311808118603    0.3566429020965912 Nb
   0.3479794394309111    0.1731978474785269    0.3566429020965912 Nb
   0.4146461060975778    0.2398645141451936    0.3566429020965912 Nb
   0.4813127727642446    0.3065311808118603    0.3566429020965912 Nb
   0.5479794394309112    0.3731978474785269    0.3566429020965912 Nb
   0.6146461060975777    0.4398645141451935    0.3566429020965912 Nb
   0.6813127727642445    0.5065311808118602    0.3566429020965912 Nb
   0.7479794394309112    0.5731978474785269    0.3566429020965912 Nb
   0.8146461060975779    0.6398645141451936    0.3566429020965912 Nb
   0.8813127727642449    0.7065311808118602    0.3566429020965912 Nb
   0.9479794394309113    0.7731978474785269    0.3566429020965912 Nb
   0.0146461060975780    0.8398645141451937    0.3566429020965912 Nb
   0.2813127727642445    0.9065311808118601    0.3566429020965912 Nb
   0.3479794394309111    0.9731978474785269    0.3566429020965912 Nb
   0.4146461060975778    0.0398645141451936    0.3566429020965912 Nb
   0.4813127727642444    0.1065311808118603    0.3566429020965912 Nb
   0.5479794394309113    0.1731978474785269    0.3566429020965912 Nb
   0.6146461060975777    0.2398645141451936    0.3566429020965912 Nb
   0.6813127727642444    0.3065311808118603    0.3566429020965912 Nb
   0.7479794394309112    0.3731978474785269    0.3566429020965912 Nb
   0.8146461060975778    0.4398645141451935    0.3566429020965912 Nb
   0.8813127727642446    0.5065311808118602    0.3566429020965912 Nb
   0.9479794394309111    0.5731978474785269    0.3566429020965912 Nb
   0.0146461060975780    0.6398645141451936    0.3566429020965912 Nb
   0.4813127727642447    0.9065311808118601    0.3566429020965912 Nb
   0.5479794394309112    0.9731978474785269    0.3566429020965912 Nb
   0.6146461060975777    0.0398645141451936    0.3566429020965912 Nb
   0.6813127727642444    0.1065311808118603    0.3566429020965912 Nb
   0.7479794394309115    0.1731978474785269    0.3566429020965912 Nb
   0.8146461060975778    0.2398645141451936    0.3566429020965912 Nb
   0.8813127727642447    0.3065311808118603    0.3566429020965912 Nb
   0.9479794394309112    0.3731978474785269    0.3566429020965912 Nb
   0.0146461060975782    0.4398645141451935    0.3566429020965912 Nb
   0.6813127727642444    0.9065311808118601    0.3566429020965912 Nb
   0.7479794394309114    0.9731978474785269    0.3566429020965912 Nb
   0.8146461060975777    0.0398645141451936    0.3566429020965912 Nb
   0.8813127727642446    0.1065311808118602    0.3566429020965912 Nb
   0.9479794394309111    0.1731978474785269    0.3566429020965912 Nb
   0.0146461060975780    0.2398645141451936    0.3566429020965912 Nb
   0.8813127727642448    0.9065311808118601    0.3566429020965912 Nb
   0.9479794394309111    0.9731978474785269    0.3566429020965912 Nb
   0.0146461060975780    0.0398645141451936    0.3566429020965912 Nb
   0.0816569455516819    0.7062248433300760    0.2336917587878816 Nb
   0.1483236122183486    0.7728915099967426    0.2336917587878816 Nb
   0.2149902788850153    0.8395581766634092    0.2336917587878816 Nb
   0.0816569455516819    0.5062248433300759    0.2336917587878816 Nb
   0.1483236122183486    0.5728915099967427    0.2336917587878816 Nb
   0.2149902788850152    0.6395581766634092    0.2336917587878816 Nb
   0.2816569455516819    0.7062248433300760    0.2336917587878816 Nb
   0.3483236122183485    0.7728915099967426    0.2336917587878816 Nb
   0.4149902788850153    0.8395581766634092    0.2336917587878816 Nb
   0.0816569455516819    0.3062248433300759    0.2336917587878816 Nb
   0.1483236122183485    0.3728915099967426    0.2336917587878816 Nb
   0.2149902788850153    0.4395581766634092    0.2336917587878816 Nb
   0.2816569455516819    0.5062248433300759    0.2336917587878816 Nb
   0.3483236122183488    0.5728915099967423    0.2336917587878816 Nb
   0.4149902788850152    0.6395581766634092    0.2336917587878816 Nb
   0.4816569455516819    0.7062248433300760    0.2336917587878816 Nb
   0.5483236122183486    0.7728915099967426    0.2336917587878816 Nb
   0.6149902788850151    0.8395581766634092    0.2336917587878816 Nb
   0.0816569455516819    0.1062248433300760    0.2336917587878816 Nb
   0.1483236122183486    0.1728915099967426    0.2336917587878816 Nb
   0.2149902788850152    0.2395581766634092    0.2336917587878816 Nb
   0.2816569455516819    0.3062248433300759    0.2336917587878816 Nb
   0.3483236122183486    0.3728915099967426    0.2336917587878816 Nb
   0.4149902788850152    0.4395581766634092    0.2336917587878816 Nb
   0.4816569455516819    0.5062248433300759    0.2336917587878816 Nb
   0.5483236122183487    0.5728915099967423    0.2336917587878816 Nb
   0.6149902788850152    0.6395581766634092    0.2336917587878816 Nb
   0.6816569455516818    0.7062248433300760    0.2336917587878816 Nb
   0.7483236122183485    0.7728915099967426    0.2336917587878816 Nb
   0.8149902788850153    0.8395581766634092    0.2336917587878816 Nb
   0.0816569455516819    0.9062248433300760    0.2336917587878816 Nb
   0.1483236122183485    0.9728915099967427    0.2336917587878816 Nb
   0.2149902788850152    0.0395581766634093    0.2336917587878816 Nb
   0.2816569455516820    0.1062248433300760    0.2336917587878816 Nb
   0.3483236122183487    0.1728915099967426    0.2336917587878816 Nb
   0.4149902788850153    0.2395581766634092    0.2336917587878816 Nb
   0.4816569455516822    0.3062248433300759    0.2336917587878816 Nb
   0.5483236122183486    0.3728915099967426    0.2336917587878816 Nb
   0.6149902788850151    0.4395581766634092    0.2336917587878816 Nb
   0.6816569455516821    0.5062248433300759    0.2336917587878816 Nb
   0.7483236122183485    0.5728915099967423    0.2336917587878816 Nb
   0.8149902788850152    0.6395581766634092    0.2336917587878816 Nb
   0.8816569455516822    0.7062248433300760    0.2336917587878816 Nb
   0.9483236122183489    0.7728915099967426    0.2336917587878816 Nb
   0.0149902788850156    0.8395581766634092    0.2336917587878816 Nb
   0.2816569455516819    0.9062248433300760    0.2336917587878816 Nb
   0.3483236122183485    0.9728915099967427    0.2336917587878816 Nb
   0.4149902788850154    0.0395581766634093    0.2336917587878816 Nb
   0.4816569455516822    0.1062248433300760    0.2336917587878816 Nb
   0.5483236122183487    0.1728915099967426    0.2336917587878816 Nb
   0.6149902788850152    0.2395581766634092    0.2336917587878816 Nb
   0.6816569455516819    0.3062248433300759    0.2336917587878816 Nb
   0.7483236122183485    0.3728915099967426    0.2336917587878816 Nb
   0.8149902788850152    0.4395581766634092    0.2336917587878816 Nb
   0.8816569455516818    0.5062248433300759    0.2336917587878816 Nb
   0.9483236122183489    0.5728915099967423    0.2336917587878816 Nb
   0.0149902788850153    0.6395581766634092    0.2336917587878816 Nb
   0.4816569455516821    0.9062248433300760    0.2336917587878816 Nb
   0.5483236122183489    0.9728915099967427    0.2336917587878816 Nb
   0.6149902788850152    0.0395581766634093    0.2336917587878816 Nb
   0.6816569455516818    0.1062248433300760    0.2336917587878816 Nb
   0.7483236122183488    0.1728915099967426    0.2336917587878816 Nb
   0.8149902788850155    0.2395581766634092    0.2336917587878816 Nb
   0.8816569455516819    0.3062248433300759    0.2336917587878816 Nb
   0.9483236122183485    0.3728915099967426    0.2336917587878816 Nb
   0.0149902788850153    0.4395581766634092    0.2336917587878816 Nb
   0.6816569455516819    0.9062248433300759    0.2336917587878816 Nb
   0.7483236122183486    0.9728915099967426    0.2336917587878816 Nb
   0.8149902788850155    0.0395581766634093    0.2336917587878816 Nb
   0.8816569455516821    0.1062248433300759    0.2336917587878816 Nb
   0.9483236122183485    0.1728915099967426    0.2336917587878816 Nb
   0.0149902788850153    0.2395581766634092    0.2336917587878816 Nb
   0.8816569455516822    0.9062248433300760    0.2336917587878816 Nb
   0.9483236122183488    0.9728915099967427    0.2336917587878816 Nb
   0.0149902788850153    0.0395581766634093    0.2336917587878816 Nb
   0.9237703558506448    0.7651779041785990    0.7671208852038272 Bi
   0.8083857404660294    0.7267163657170606    0.7671208852038272 Bi
   0.9622318943121831    0.6113317503324451    0.7671208852038272 Bi
   0.6930011250814144    0.6882548272555222    0.7671208852038272 Bi
   0.8468472789275684    0.5728702118709068    0.7671208852038272 Bi
   0.0006934327737219    0.4574855964862915    0.7671208852038270 Bi
   0.4237703558506448    0.7651779041785991    0.7671208852038269 Bi
   0.5776165096967991    0.6497932887939837    0.7671208852038269 Bi
   0.7314626635429525    0.5344086734093683    0.7671208852038269 Bi
   0.8853088173891067    0.4190240580247530    0.7671208852038269 Bi
   0.3083857404660296    0.7267163657170607    0.7671208852038269 Bi
   0.4622318943121834    0.6113317503324451    0.7671208852038269 Bi
   0.6160780481583372    0.4959471349478298    0.7671208852038269 Bi
   0.7699242020044911    0.3805625195632143    0.7671208852038269 Bi
   0.9237703558506450    0.2651779041785992    0.7671208852038269 Bi
   0.1930011250814142    0.6882548272555222    0.7671208852038270 Bi
   0.3468472789275679    0.5728702118709066    0.7671208852038270 Bi
   0.5006934327737219    0.4574855964862914    0.7671208852038270 Bi
   0.6545395866198758    0.3421009811016760    0.7671208852038270 Bi
   0.8083857404660295    0.2267163657170606    0.7671208852038269 Bi
   0.9622318943121831    0.1113317503324451    0.7671208852038269 Bi
   0.0776165096967988    0.6497932887939837    0.7671208852038270 Bi
   0.2314626635429526    0.5344086734093683    0.7671208852038270 Bi
   0.3853088173891065    0.4190240580247528    0.7671208852038270 Bi
   0.5391549712352603    0.3036394426401375    0.7671208852038270 Bi
   0.6930011250814142    0.1882548272555221    0.7671208852038270 Bi
   0.8468472789275681    0.0728702118709068    0.7671208852038270 Bi
   0.0006934327737220    0.9574855964862914    0.7671208852038270 Bi
   0.1160780481583373    0.4959471349478297    0.7671208852038270 Bi
   0.2699242020044911    0.3805625195632145    0.7671208852038270 Bi
   0.4237703558506450    0.2651779041785990    0.7671208852038270 Bi
   0.5776165096967986    0.1497932887939836    0.7671208852038270 Bi
   0.7314626635429524    0.0344086734093683    0.7671208852038270 Bi
   0.8853088173891064    0.9190240580247528    0.7671208852038272 Bi
   0.1545395866198757    0.3421009811016760    0.7671208852038270 Bi
   0.3083857404660297    0.2267163657170606    0.7671208852038270 Bi
   0.4622318943121836    0.1113317503324452    0.7671208852038270 Bi
   0.6160780481583372    0.9959471349478298    0.7671208852038270 Bi
   0.7699242020044912    0.8805625195632144    0.7671208852038272 Bi
   0.0391549712352603    0.3036394426401375    0.7671208852038270 Bi
   0.1930011250814142    0.1882548272555221    0.7671208852038270 Bi
   0.3468472789275681    0.0728702118709068    0.7671208852038270 Bi
   0.5006934327737219    0.9574855964862914    0.7671208852038270 Bi
   0.6545395866198754    0.8421009811016759    0.7671208852038272 Bi
   0.0776165096967987    0.1497932887939837    0.7671208852038270 Bi
   0.2314626635429526    0.0344086734093683    0.7671208852038270 Bi
   0.3853088173891064    0.9190240580247528    0.7671208852038269 Bi
   0.5391549712352603    0.8036394426401375    0.7671208852038269 Bi
   0.1160780481583373    0.9959471349478298    0.7671208852038270 Bi
   0.2699242020044911    0.8805625195632144    0.7671208852038269 Bi
   0.1545395866198757    0.8421009811016759    0.7671208852038270 Bi
   0.0391549712352604    0.8036394426401375    0.7671208852038270 Bi
   0.9501319825382836    0.8299329470703769    0.6873709670584138 Bi
   0.8347473671536684    0.7914714086088385    0.6873709670584138 Bi
   0.9885935209998220    0.6760867932242232    0.6873709670584138 Bi
   0.7193627517690530    0.7530098701473003    0.6873709670584138 Bi
   0.8732089056152069    0.6376252547626847    0.6873709670584138 Bi
   0.0270550594613606    0.5222406393780694    0.6873709670584138 Bi
   0.4501319825382837    0.8299329470703770    0.6873709670584138 Bi
   0.6039781363844373    0.7145483316857618    0.6873709670584138 Bi
   0.7578242902305909    0.5991637163011462    0.6873709670584138 Bi
   0.9116704440767452    0.4837791009165310    0.6873709670584138 Bi
   0.3347473671536683    0.7914714086088385    0.6873709670584138 Bi
   0.4885935209998220    0.6760867932242232    0.6873709670584138 Bi
   0.6424396748459760    0.5607021778396077    0.6873709670584138 Bi
   0.7962858286921297    0.4453175624549924    0.6873709670584138 Bi
   0.9501319825382835    0.3299329470703771    0.6873709670584138 Bi
   0.2193627517690528    0.7530098701473001    0.6873709670584138 Bi
   0.3732089056152066    0.6376252547626847    0.6873709670584138 Bi
   0.5270550594613604    0.5222406393780693    0.6873709670584138 Bi
   0.6809012133075141    0.4068560239934541    0.6873709670584138 Bi
   0.8347473671536683    0.2914714086088385    0.6873709670584138 Bi
   0.9885935209998220    0.1760867932242232    0.6873709670584138 Bi
   0.1039781363844373    0.7145483316857617    0.6873709670584138 Bi
   0.2578242902305912    0.5991637163011462    0.6873709670584138 Bi
   0.4116704440767449    0.4837791009165309    0.6873709670584138 Bi
   0.5655165979228988    0.3683944855319155    0.6873709670584138 Bi
   0.7193627517690528    0.2530098701473001    0.6873709670584138 Bi
   0.8732089056152065    0.1376252547626848    0.6873709670584138 Bi
   0.0270550594613603    0.0222406393780694    0.6873709670584138 Bi
   0.1424396748459757    0.5607021778396079    0.6873709670584138 Bi
   0.2962858286921295    0.4453175624549924    0.6873709670584138 Bi
   0.4501319825382835    0.3299329470703771    0.6873709670584138 Bi
   0.6039781363844373    0.2145483316857617    0.6873709670584138 Bi
   0.7578242902305909    0.0991637163011463    0.6873709670584138 Bi
   0.9116704440767449    0.9837791009165309    0.6873709670584138 Bi
   0.1809012133075143    0.4068560239934541    0.6873709670584138 Bi
   0.3347473671536683    0.2914714086088386    0.6873709670584138 Bi
   0.4885935209998220    0.1760867932242232    0.6873709670584138 Bi
   0.6424396748459759    0.0607021778396078    0.6873709670584138 Bi
   0.7962858286921294    0.9453175624549924    0.6873709670584138 Bi
   0.0655165979228989    0.3683944855319155    0.6873709670584138 Bi
   0.2193627517690527    0.2530098701473001    0.6873709670584138 Bi
   0.3732089056152066    0.1376252547626848    0.6873709670584138 Bi
   0.5270550594613603    0.0222406393780693    0.6873709670584138 Bi
   0.6809012133075143    0.9068560239934539    0.6873709670584138 Bi
   0.1039781363844374    0.2145483316857617    0.6873709670584138 Bi
   0.2578242902305913    0.0991637163011463    0.6873709670584138 Bi
   0.4116704440767450    0.9837791009165309    0.6873709670584138 Bi
   0.5655165979228987    0.8683944855319154    0.6873709670584138 Bi
   0.1424396748459759    0.0607021778396078    0.6873709670584138 Bi
   0.2962858286921296    0.9453175624549925    0.6873709670584138 Bi
   0.1809012133075144    0.9068560239934540    0.6873709670584138 Bi
   0.0655165979228990    0.8683944855319154    0.6873709670584138 Bi
   0.9488785368550132    0.8325402258844838    0.5665155440360311 Bi
   0.8334939214703979    0.7940786874229453    0.5665155440360311 Bi
   0.9873400753165514    0.6786940720383299    0.5665155440360311 Bi
   0.7181093060857825    0.7556171489614069    0.5665155440360311 Bi
   0.8719554599319365    0.6402325335767916    0.5665155440360311 Bi
   0.0258016137780901    0.5248479181921761    0.5665155440360311 Bi
   0.4488785368550132    0.8325402258844838    0.5665155440360311 Bi
   0.6027246907011672    0.7171556104998685    0.5665155440360311 Bi
   0.7565708445473209    0.6017709951152530    0.5665155440360311 Bi
   0.9104169983934745    0.4863863797306376    0.5665155440360311 Bi
   0.3334939214703979    0.7940786874229453    0.5665155440360311 Bi
   0.4873400753165516    0.6786940720383300    0.5665155440360311 Bi
   0.6411862291627056    0.5633094566537146    0.5665155440360311 Bi
   0.7950323830088591    0.4479248412690991    0.5665155440360311 Bi
   0.9488785368550132    0.3325402258844837    0.5665155440360311 Bi
   0.2181093060857827    0.7556171489614069    0.5665155440360311 Bi
   0.3719554599319365    0.6402325335767916    0.5665155440360311 Bi
   0.5258016137780903    0.5248479181921761    0.5665155440360311 Bi
   0.6796477676242439    0.4094633028075608    0.5665155440360311 Bi
   0.8334939214703978    0.2940786874229455    0.5665155440360311 Bi
   0.9873400753165515    0.1786940720383299    0.5665155440360311 Bi
   0.1027246907011672    0.7171556104998684    0.5665155440360311 Bi
   0.2565708445473209    0.6017709951152531    0.5665155440360311 Bi
   0.4104169983934747    0.4863863797306376    0.5665155440360311 Bi
   0.5642631522396286    0.3710017643460223    0.5665155440360311 Bi
   0.7181093060857824    0.2556171489614069    0.5665155440360311 Bi
   0.8719554599319366    0.1402325335767916    0.5665155440360311 Bi
   0.0258016137780900    0.0248479181921762    0.5665155440360311 Bi
   0.1411862291627054    0.5633094566537147    0.5665155440360311 Bi
   0.2950323830088594    0.4479248412690993    0.5665155440360311 Bi
   0.4488785368550131    0.3325402258844837    0.5665155440360311 Bi
   0.6027246907011669    0.2171556104998684    0.5665155440360311 Bi
   0.7565708445473210    0.1017709951152530    0.5665155440360311 Bi
   0.9104169983934748    0.9863863797306377    0.5665155440360311 Bi
   0.1796477676242441    0.4094633028075608    0.5665155440360311 Bi
   0.3334939214703980    0.2940786874229454    0.5665155440360311 Bi
   0.4873400753165519    0.1786940720383301    0.5665155440360311 Bi
   0.6411862291627056    0.0633094566537146    0.5665155440360311 Bi
   0.7950323830088596    0.9479248412690990    0.5665155440360311 Bi
   0.0642631522396287    0.3710017643460223    0.5665155440360311 Bi
   0.2181093060857825    0.2556171489614069    0.5665155440360311 Bi
   0.3719554599319364    0.1402325335767916    0.5665155440360311 Bi
   0.5258016137780902    0.0248479181921761    0.5665155440360311 Bi
   0.6796477676242442    0.9094633028075608    0.5665155440360311 Bi
   0.1027246907011671    0.2171556104998684    0.5665155440360311 Bi
   0.2565708445473210    0.1017709951152531    0.5665155440360311 Bi
   0.4104169983934746    0.9863863797306377    0.5665155440360311 Bi
   0.5642631522396288    0.8710017643460223    0.5665155440360311 Bi
   0.1411862291627056    0.0633094566537146    0.5665155440360311 Bi
   0.2950323830088595    0.9479248412690990    0.5665155440360311 Bi
   0.1796477676242441    0.9094633028075607    0.5665155440360311 Bi
   0.0642631522396286    0.8710017643460223    0.5665155440360311 Bi
   0.8599201986632203    0.8580133846583062    0.4870641414761425 Bi
   0.7445355832786047    0.8195518461967678    0.4870641414761425 Bi
   0.8983817371247588    0.7041672308121523    0.4870641414761425 Bi
   0.6291509678939896    0.7810903077352294    0.4870641414761425 Bi
   0.7829971217401436    0.6657056923506139    0.4870641414761425 Bi
   0.9368432755862975    0.5503210769659986    0.4870641414761425 Bi
   0.3599201986632206    0.8580133846583062    0.4870641414761425 Bi
   0.5137663525093745    0.7426287692736908    0.4870641414761425 Bi
   0.6676125063555280    0.6272441538890755    0.4870641414761425 Bi
   0.8214586602016822    0.5118595385044601    0.4870641414761425 Bi
   0.2445355832786052    0.8195518461967678    0.4870641414761425 Bi
   0.3983817371247588    0.7041672308121523    0.4870641414761425 Bi
   0.5522278909709127    0.5887826154275371    0.4870641414761425 Bi
   0.7060740448170666    0.4733980000429215    0.4870641414761425 Bi
   0.8599201986632206    0.3580133846583062    0.4870641414761425 Bi
   0.1291509678939897    0.7810903077352294    0.4870641414761425 Bi
   0.2829971217401435    0.6657056923506139    0.4870641414761425 Bi
   0.4368432755862973    0.5503210769659985    0.4870641414761425 Bi
   0.5906894294324513    0.4349364615813831    0.4870641414761425 Bi
   0.7445355832786053    0.3195518461967677    0.4870641414761425 Bi
   0.8983817371247590    0.2041672308121524    0.4870641414761425 Bi
   0.0137663525093743    0.7426287692736907    0.4870641414761425 Bi
   0.1676125063555282    0.6272441538890755    0.4870641414761425 Bi
   0.3214586602016816    0.5118595385044601    0.4870641414761425 Bi
   0.4753048140478359    0.3964749231198447    0.4870641414761425 Bi
   0.6291509678939897    0.2810903077352294    0.4870641414761425 Bi
   0.7829971217401437    0.1657056923506140    0.4870641414761425 Bi
   0.9368432755862974    0.0503210769659986    0.4870641414761425 Bi
   0.0522278909709125    0.5887826154275370    0.4870641414761425 Bi
   0.2060740448170665    0.4733980000429217    0.4870641414761425 Bi
   0.3599201986632205    0.3580133846583062    0.4870641414761425 Bi
   0.5137663525093741    0.2426287692736908    0.4870641414761425 Bi
   0.6676125063555280    0.1272441538890754    0.4870641414761425 Bi
   0.8214586602016819    0.0118595385044601    0.4870641414761425 Bi
   0.0906894294324511    0.4349364615813832    0.4870641414761425 Bi
   0.2445355832786051    0.3195518461967677    0.4870641414761425 Bi
   0.3983817371247589    0.2041672308121524    0.4870641414761425 Bi
   0.5522278909709128    0.0887826154275370    0.4870641414761425 Bi
   0.7060740448170664    0.9733980000429215    0.4870641414761425 Bi
   0.9753048140478358    0.3964749231198447    0.4870641414761425 Bi
   0.1291509678939896    0.2810903077352293    0.4870641414761425 Bi
   0.2829971217401434    0.1657056923506139    0.4870641414761425 Bi
   0.4368432755862973    0.0503210769659985    0.4870641414761425 Bi
   0.5906894294324511    0.9349364615813830    0.4870641414761425 Bi
   0.0137663525093742    0.2426287692736908    0.4870641414761425 Bi
   0.1676125063555281    0.1272441538890754    0.4870641414761425 Bi
   0.3214586602016818    0.0118595385044600    0.4870641414761425 Bi
   0.4753048140478357    0.8964749231198447    0.4870641414761425 Bi
   0.0522278909709126    0.0887826154275370    0.4870641414761425 Bi
   0.2060740448170665    0.9733980000429215    0.4870641414761425 Bi
   0.0906894294324513    0.9349364615813830    0.4870641414761425 Bi
   0.9753048140478358    0.8964749231198447    0.4870641414761425 Bi
   0.0149935698159536    0.7062046249503481    0.2000427878291579 Se
   0.0816602364826202    0.7728712916170148    0.2000427878291579 Se
   0.1483269031492869    0.8395379582836816    0.2000427878291579 Se
   0.0149935698159536    0.5062046249503481    0.2000427878291579 Se
   0.0816602364826202    0.5728712916170149    0.2000427878291579 Se
   0.1483269031492869    0.6395379582836817    0.2000427878291579 Se
   0.2149935698159537    0.7062046249503481    0.2000427878291579 Se
   0.2816602364826204    0.7728712916170148    0.2000427878291579 Se
   0.3483269031492869    0.8395379582836816    0.2000427878291579 Se
   0.0149935698159536    0.3062046249503482    0.2000427878291579 Se
   0.0816602364826202    0.3728712916170148    0.2000427878291579 Se
   0.1483269031492870    0.4395379582836814    0.2000427878291579 Se
   0.2149935698159536    0.5062046249503481    0.2000427878291579 Se
   0.2816602364826203    0.5728712916170148    0.2000427878291579 Se
   0.3483269031492870    0.6395379582836815    0.2000427878291579 Se
   0.4149935698159536    0.7062046249503481    0.2000427878291579 Se
   0.4816602364826204    0.7728712916170148    0.2000427878291579 Se
   0.5483269031492872    0.8395379582836816    0.2000427878291579 Se
   0.0149935698159536    0.1062046249503482    0.2000427878291579 Se
   0.0816602364826203    0.1728712916170148    0.2000427878291579 Se
   0.1483269031492870    0.2395379582836814    0.2000427878291579 Se
   0.2149935698159536    0.3062046249503482    0.2000427878291579 Se
   0.2816602364826203    0.3728712916170148    0.2000427878291579 Se
   0.3483269031492870    0.4395379582836814    0.2000427878291579 Se
   0.4149935698159536    0.5062046249503481    0.2000427878291579 Se
   0.4816602364826203    0.5728712916170148    0.2000427878291579 Se
   0.5483269031492872    0.6395379582836815    0.2000427878291579 Se
   0.6149935698159537    0.7062046249503481    0.2000427878291579 Se
   0.6816602364826208    0.7728712916170148    0.2000427878291579 Se
   0.7483269031492868    0.8395379582836816    0.2000427878291579 Se
   0.0149935698159536    0.9062046249503481    0.2000427878291579 Se
   0.0816602364826203    0.9728712916170148    0.2000427878291579 Se
   0.1483269031492870    0.0395379582836815    0.2000427878291579 Se
   0.2149935698159537    0.1062046249503482    0.2000427878291579 Se
   0.2816602364826203    0.1728712916170148    0.2000427878291579 Se
   0.3483269031492871    0.2395379582836814    0.2000427878291579 Se
   0.4149935698159538    0.3062046249503482    0.2000427878291579 Se
   0.4816602364826204    0.3728712916170148    0.2000427878291579 Se
   0.5483269031492870    0.4395379582836814    0.2000427878291579 Se
   0.6149935698159538    0.5062046249503481    0.2000427878291579 Se
   0.6816602364826206    0.5728712916170148    0.2000427878291579 Se
   0.7483269031492870    0.6395379582836815    0.2000427878291579 Se
   0.8149935698159537    0.7062046249503481    0.2000427878291579 Se
   0.8816602364826203    0.7728712916170148    0.2000427878291579 Se
   0.9483269031492870    0.8395379582836816    0.2000427878291579 Se
   0.2149935698159536    0.9062046249503481    0.2000427878291579 Se
   0.2816602364826204    0.9728712916170148    0.2000427878291579 Se
   0.3483269031492870    0.0395379582836815    0.2000427878291579 Se
   0.4149935698159536    0.1062046249503482    0.2000427878291579 Se
   0.4816602364826205    0.1728712916170148    0.2000427878291579 Se
   0.5483269031492870    0.2395379582836814    0.2000427878291579 Se
   0.6149935698159537    0.3062046249503482    0.2000427878291579 Se
   0.6816602364826203    0.3728712916170148    0.2000427878291579 Se
   0.7483269031492871    0.4395379582836814    0.2000427878291579 Se
   0.8149935698159537    0.5062046249503481    0.2000427878291579 Se
   0.8816602364826203    0.5728712916170148    0.2000427878291579 Se
   0.9483269031492869    0.6395379582836815    0.2000427878291579 Se
   0.4149935698159537    0.9062046249503481    0.2000427878291579 Se
   0.4816602364826204    0.9728712916170148    0.2000427878291579 Se
   0.5483269031492872    0.0395379582836815    0.2000427878291579 Se
   0.6149935698159537    0.1062046249503482    0.2000427878291579 Se
   0.6816602364826206    0.1728712916170148    0.2000427878291579 Se
   0.7483269031492871    0.2395379582836814    0.2000427878291579 Se
   0.8149935698159538    0.3062046249503482    0.2000427878291579 Se
   0.8816602364826203    0.3728712916170148    0.2000427878291579 Se
   0.9483269031492871    0.4395379582836814    0.2000427878291579 Se
   0.6149935698159539    0.9062046249503481    0.2000427878291579 Se
   0.6816602364826204    0.9728712916170148    0.2000427878291579 Se
   0.7483269031492873    0.0395379582836815    0.2000427878291579 Se
   0.8149935698159538    0.1062046249503481    0.2000427878291579 Se
   0.8816602364826204    0.1728712916170148    0.2000427878291579 Se
   0.9483269031492870    0.2395379582836814    0.2000427878291579 Se
   0.8149935698159538    0.9062046249503481    0.2000427878291579 Se