Nb2
1.0
   3.2591040961249340    0.0000000000000000    0.0000000000000000
   0.0000000000000000    3.2591040961249340    0.0000000000000000
   0.0000000000000000    0.0000000000000000    3.2591040961249340
Nb
2
direct
   0.0000000000000000    0.0000000000000000    0.0000000000000000 Nb
   0.5089792365224829    0.5089792365224829    0.5089792365224829 Nb
