Nb76 Bi104 Se308
1.0
  15.0973550219618300    0.0000000000000000    0.0000000000000009
   0.0000000016020113   26.1493859574585521    0.0000000000000016
   0.0000000000000000    0.0000000000000000   49.9893053307188922
Nb Bi Se
76 104 308
direct
   0.7292245469714840    0.1265453373448856    0.3566429020965913 Nb
   0.7029087574977998    0.2581242847133067    0.3566429020965913 Nb
   0.6765929680241156    0.3897032320817278    0.3566429020965913 Nb
   0.6502771785504314    0.5212821794501488    0.3566429020965913 Nb
   0.6239613890767470    0.6528611268185698    0.3566429020965913 Nb
   0.5976455996030632    0.7844400741869907    0.3566429020965913 Nb
   0.5713298101293790    0.9160190215554116    0.3566429020965913 Nb
   0.5450140206556946    0.0475979689238330    0.3566429020965913 Nb
   0.5186982311820104    0.1791769162922539    0.3566429020965913 Nb
   0.4923824417083260    0.3107558636606751    0.3566429020965913 Nb
   0.4660666522346419    0.4423348110290961    0.3566429020965913 Nb
   0.4397508627609579    0.5739137583975172    0.3566429020965913 Nb
   0.4134350732872737    0.7054927057659383    0.3566429020965913 Nb
   0.3871192838135893    0.8370716531343592    0.3566429020965913 Nb
   0.3608034943399051    0.9686506005027805    0.3566429020965913 Nb
   0.3344877048662207    0.1002295478712014    0.3566429020965913 Nb
   0.3081719153925366    0.2318084952396224    0.3566429020965913 Nb
   0.2818561259188523    0.3633874426080435    0.3566429020965913 Nb
   0.2555403364451681    0.4949663899764645    0.3566429020965913 Nb
   0.2292245469714838    0.6265453373448855    0.3566429020965913 Nb
   0.2029087574978000    0.7581242847133064    0.3566429020965913 Nb
   0.1765929680241158    0.8897032320817277    0.3566429020965913 Nb
   0.1502771785504313    0.0212821794501488    0.3566429020965913 Nb
   0.1239613890767471    0.1528611268185698    0.3566429020965913 Nb
   0.0976455996030630    0.2844400741869909    0.3566429020965913 Nb
   0.0713298101293786    0.4160190215554118    0.3566429020965913 Nb
   0.0450140206556946    0.5475979689238327    0.3566429020965913 Nb
   0.0186982311820103    0.6791769162922540    0.3566429020965913 Nb
   0.9923824417083260    0.8107558636606749    0.3566429020965913 Nb
   0.9660666522346421    0.9423348110290959    0.3566429020965913 Nb
   0.9397508627609575    0.0739137583975171    0.3566429020965913 Nb
   0.9134350732872734    0.2054927057659382    0.3566429020965913 Nb
   0.8871192838135894    0.3370716531343593    0.3566429020965913 Nb
   0.8608034943399050    0.4686506005027801    0.3566429020965913 Nb
   0.8344877048662207    0.6002295478712013    0.3566429020965913 Nb
   0.8081719153925367    0.7318084952396221    0.3566429020965913 Nb
   0.7818561259188526    0.8633874426080435    0.3566429020965913 Nb
   0.7555403364451680    0.9949663899764645    0.3566429020965913 Nb
   0.7285751285533730    0.1265398780893313    0.2336917587878816 Nb
   0.7022593390796890    0.2581188254577524    0.2336917587878816 Nb
   0.6759435496060048    0.3896977728261735    0.2336917587878816 Nb
   0.6496277601323206    0.5212767201945946    0.2336917587878816 Nb
   0.6233119706586362    0.6528556675630155    0.2336917587878816 Nb
   0.5969961811849520    0.7844346149314365    0.2336917587878816 Nb
   0.5706803917112678    0.9160135622998576    0.2336917587878817 Nb
   0.5443646022375834    0.0475925096682787    0.2336917587878817 Nb
   0.5180488127638992    0.1791714570366997    0.2336917587878816 Nb
   0.4917330232902152    0.3107504044051208    0.2336917587878816 Nb
   0.4654172338165312    0.4423293517735419    0.2336917587878816 Nb
   0.4391014443428469    0.5739082991419628    0.2336917587878816 Nb
   0.4127856548691627    0.7054872465103837    0.2336917587878816 Nb
   0.3864698653954785    0.8370661938788049    0.2336917587878816 Nb
   0.3601540759217941    0.9686451412472260    0.2336917587878817 Nb
   0.3338382864481099    0.1002240886156471    0.2336917587878817 Nb
   0.3075224969744256    0.2318030359840681    0.2336917587878817 Nb
   0.2812067075007415    0.3633819833524893    0.2336917587878816 Nb
   0.2548909180270573    0.4949609307209102    0.2336917587878816 Nb
   0.2285751285533730    0.6265398780893312    0.2336917587878816 Nb
   0.2022593390796888    0.7581188254577522    0.2336917587878816 Nb
   0.1759435496060048    0.8896977728261735    0.2336917587878816 Nb
   0.1496277601323204    0.0212767201945945    0.2336917587878817 Nb
   0.1233119706586362    0.1528556675630155    0.2336917587878817 Nb
   0.0969961811849521    0.2844346149314366    0.2336917587878817 Nb
   0.0706803917112677    0.4160135622998576    0.2336917587878816 Nb
   0.0443646022375836    0.5475925096682785    0.2336917587878816 Nb
   0.0180488127638994    0.6791714570366998    0.2336917587878816 Nb
   0.9917330232902152    0.8107504044051207    0.2336917587878816 Nb
   0.9654172338165309    0.9423293517735417    0.2336917587878816 Nb
   0.9391014443428467    0.0739082991419629    0.2336917587878817 Nb
   0.9127856548691625    0.2054872465103839    0.2336917587878817 Nb
   0.8864698653954783    0.3370661938788050    0.2336917587878816 Nb
   0.8601540759217942    0.4686451412472261    0.2336917587878816 Nb
   0.8338382864481096    0.6002240886156470    0.2336917587878816 Nb
   0.8075224969744257    0.7318030359840680    0.2336917587878817 Nb
   0.7812067075007418    0.8633819833524892    0.2336917587878817 Nb
   0.7548909180270572    0.9949609307209103    0.2336917587878817 Nb
   0.1098058143309889    0.0327757222217813    0.7671208852038272 Bi
   0.3021135066386813    0.1481603376063967    0.7671208852038272 Bi
   0.5713442758694505    0.1096987991448583    0.7671208852038272 Bi
   0.8405750451002195    0.0712372606833198    0.7671208852038272 Bi
   0.2251904297156042    0.3020064914525507    0.7671208852038272 Bi
   0.4944211989463738    0.2635449529910121    0.7671208852038272 Bi
   0.7636519681771426    0.2250834145294736    0.7671208852038272 Bi
   0.0328827374079121    0.1866218760679352    0.7671208852038272 Bi
   0.1482673527925274    0.4558526452987043    0.7671208852038272 Bi
   0.4174981220232966    0.4173911068371658    0.7671208852038272 Bi
   0.6867288912540658    0.3789295683756275    0.7671208852038272 Bi
   0.9559596604848353    0.3404680299140890    0.7671208852038272 Bi
   0.3405750451002197    0.5712372606833198    0.7671208852038272 Bi
   0.6098058143309890    0.5327757222217813    0.7671208852038272 Bi
   0.8790365835617581    0.4943141837602428    0.7671208852038272 Bi
   0.2636519681771428    0.7250834145294737    0.7671208852038272 Bi
   0.5328827374079119    0.6866218760679350    0.7671208852038272 Bi
   0.8021135066386811    0.6481603376063966    0.7671208852038272 Bi
   0.0713442758694502    0.6096987991448583    0.7671208852038272 Bi
   0.1867288912540658    0.8789295683756275    0.7671208852038272 Bi
   0.4559596604848352    0.8404680299140888    0.7671208852038272 Bi
   0.7251904297156042    0.8020064914525503    0.7671208852038272 Bi
   0.9944211989463734    0.7635449529910120    0.7671208852038272 Bi
   0.3790365835617582    0.9943141837602427    0.7671208852038272 Bi
   0.6482673527925275    0.9558526452987045    0.7671208852038272 Bi
   0.9174981220232967    0.9173911068371660    0.7671208852038272 Bi
   0.0714123981268495    0.9416590526423648    0.6873709670584138 Bi
   0.2637200904345418    0.0570436680269801    0.6873709670584138 Bi
   0.5329508596653110    0.0185821295654417    0.6873709670584138 Bi
   0.8021816288960802    0.9801205911039031    0.6873709670584138 Bi
   0.1867970135114649    0.2108898218731340    0.6873709670584138 Bi
   0.4560277827422340    0.1724282834115955    0.6873709670584138 Bi
   0.7252585519730033    0.1339667449500571    0.6873709670584138 Bi
   0.9944893212037726    0.0955052064885186    0.6873709670584138 Bi
   0.1098739365883880    0.3647359757192879    0.6873709670584138 Bi
   0.3791047058191572    0.3262744372577494    0.6873709670584138 Bi
   0.6483354750499264    0.2878128987962109    0.6873709670584138 Bi
   0.9175662442806958    0.2493513603346724    0.6873709670584138 Bi
   0.3021816288960802    0.4801205911039032    0.6873709670584138 Bi
   0.5714123981268494    0.4416590526423647    0.6873709670584138 Bi
   0.8406431673576189    0.4031975141808263    0.6873709670584138 Bi
   0.2252585519730033    0.6339667449500572    0.6873709670584138 Bi
   0.4944893212037726    0.5955052064885185    0.6873709670584138 Bi
   0.7637200904345418    0.5570436680269802    0.6873709670584138 Bi
   0.0329508596653109    0.5185821295654417    0.6873709670584138 Bi
   0.1483354750499263    0.7878128987962110    0.6873709670584138 Bi
   0.4175662442806955    0.7493513603346724    0.6873709670584138 Bi
   0.6867970135114650    0.7108898218731340    0.6873709670584138 Bi
   0.9560277827422341    0.6724282834115956    0.6873709670584138 Bi
   0.3406431673576186    0.9031975141808265    0.6873709670584138 Bi
   0.6098739365883882    0.8647359757192881    0.6873709670584138 Bi
   0.8791047058191573    0.8262744372577495    0.6873709670584138 Bi
   0.0675516736294724    0.9403052195115282    0.5665155440360312 Bi
   0.2598593659371647    0.0556898348961436    0.5665155440360312 Bi
   0.5290901351679340    0.0172282964346052    0.5665155440360312 Bi
   0.7983209043987034    0.9787667579730667    0.5665155440360312 Bi
   0.1829362890140878    0.2095359887422976    0.5665155440360312 Bi
   0.4521670582448570    0.1710744502807590    0.5665155440360312 Bi
   0.7213978274756263    0.1326129118192206    0.5665155440360312 Bi
   0.9906285967063955    0.0941513733576821    0.5665155440360312 Bi
   0.1060132120910108    0.3633821425884514    0.5665155440360312 Bi
   0.3752439813217801    0.3249206041269128    0.5665155440360312 Bi
   0.6444747505525495    0.2864590656653744    0.5665155440360312 Bi
   0.9137055197833186    0.2479975272038359    0.5665155440360312 Bi
   0.2983209043987032    0.4787667579730668    0.5665155440360312 Bi
   0.5675516736294725    0.4403052195115283    0.5665155440360312 Bi
   0.8367824428602417    0.4018436810499897    0.5665155440360312 Bi
   0.2213978274756263    0.6326129118192206    0.5665155440360312 Bi
   0.4906285967063957    0.5941513733576822    0.5665155440360312 Bi
   0.7598593659371647    0.5556898348961437    0.5665155440360312 Bi
   0.0290901351679338    0.5172282964346053    0.5665155440360312 Bi
   0.1444747505525494    0.7864590656653744    0.5665155440360312 Bi
   0.4137055197833187    0.7479975272038357    0.5665155440360312 Bi
   0.6829362890140881    0.7095359887422974    0.5665155440360312 Bi
   0.9521670582448569    0.6710744502807590    0.5665155440360312 Bi
   0.3367824428602417    0.9018436810499899    0.5665155440360312 Bi
   0.6060132120910109    0.8633821425884515    0.5665155440360312 Bi
   0.8752439813217802    0.8249206041269129    0.5665155440360312 Bi
   0.9531201766638572    0.0037903989294987    0.4870641414761426 Bi
   0.1454278689715494    0.1191750143141141    0.4870641414761425 Bi
   0.4146586382023189    0.0807134758525757    0.4870641414761425 Bi
   0.6838894074330880    0.0422519373910372    0.4870641414761425 Bi
   0.0685047920484725    0.2730211681602680    0.4870641414761425 Bi
   0.3377355612792417    0.2345596296987295    0.4870641414761425 Bi
   0.6069663305100109    0.1960980912371910    0.4870641414761425 Bi
   0.8761970997407802    0.1576365527756526    0.4870641414761425 Bi
   0.9915817151253956    0.4268673220064219    0.4870641414761425 Bi
   0.2608124843561648    0.3884057835448834    0.4870641414761425 Bi
   0.5300432535869342    0.3499442450833449    0.4870641414761425 Bi
   0.7992740228177033    0.3114827066218064    0.4870641414761425 Bi
   0.1838894074330878    0.5422519373910375    0.4870641414761425 Bi
   0.4531201766638570    0.5037903989294988    0.4870641414761425 Bi
   0.7223509458946265    0.4653288604679603    0.4870641414761425 Bi
   0.1069663305100110    0.6960980912371911    0.4870641414761425 Bi
   0.3761970997407802    0.6576365527756528    0.4870641414761425 Bi
   0.6454278689715496    0.6191750143141141    0.4870641414761425 Bi
   0.9146586382023185    0.5807134758525756    0.4870641414761425 Bi
   0.0300432535869342    0.8499442450833449    0.4870641414761425 Bi
   0.2992740228177034    0.8114827066218064    0.4870641414761425 Bi
   0.5685047920484727    0.7730211681602679    0.4870641414761425 Bi
   0.8377355612792419    0.7345596296987296    0.4870641414761425 Bi
   0.2223509458946264    0.9653288604679602    0.4870641414761426 Bi
   0.4915817151253956    0.9268673220064216    0.4870641414761425 Bi
   0.7608124843561650    0.8884057835448834    0.4870641414761425 Bi
   0.8075026379406347    0.0651181179330261    0.2000427878291580 Se
   0.7811868484669505    0.1966970653014470    0.2000427878291580 Se
   0.7548710589932663    0.3282760126698683    0.2000427878291580 Se
   0.7285552695195820    0.4598549600382892    0.2000427878291580 Se
   0.7022394800458980    0.5914339074067103    0.2000427878291580 Se
   0.6759236905722137    0.7230128547751313    0.2000427878291580 Se
   0.6496079010985294    0.8545918021435522    0.2000427878291580 Se
   0.6232921116248452    0.9861707495119735    0.2000427878291580 Se
   0.5969763221511610    0.1177496968803945    0.2000427878291580 Se
   0.5706605326774769    0.2493286442488156    0.2000427878291580 Se
   0.5443447432037924    0.3809075916172365    0.2000427878291580 Se
   0.5180289537301086    0.5124865389856578    0.2000427878291580 Se
   0.4917131642564243    0.6440654863540787    0.2000427878291580 Se
   0.4653973747827402    0.7756444337224997    0.2000427878291580 Se
   0.4390815853090557    0.9072233810909207    0.2000427878291580 Se
   0.4127657958353714    0.0388023284593418    0.2000427878291580 Se
   0.3864500063616872    0.1703812758277628    0.2000427878291580 Se
   0.3601342168880031    0.3019602231961839    0.2000427878291580 Se
   0.3338184274143188    0.4335391705646049    0.2000427878291580 Se
   0.3075026379406345    0.5651181179330260    0.2000427878291580 Se
   0.2811868484669505    0.6966970653014470    0.2000427878291580 Se
   0.2548710589932664    0.8282760126698681    0.2000427878291580 Se
   0.2285552695195819    0.9598549600382892    0.2000427878291580 Se
   0.2022394800458978    0.0914339074067103    0.2000427878291580 Se
   0.1759236905722136    0.2230128547751312    0.2000427878291580 Se
   0.1496079010985293    0.3545918021435523    0.2000427878291580 Se
   0.1232921116248451    0.4861707495119733    0.2000427878291580 Se
   0.0969763221511610    0.6177496968803944    0.2000427878291580 Se
   0.0706605326774767    0.7493286442488155    0.2000427878291580 Se
   0.0443447432037925    0.8809075916172365    0.2000427878291580 Se
   0.0180289537301082    0.0124865389856576    0.2000427878291580 Se
   0.9917131642564240    0.1440654863540786    0.2000427878291580 Se
   0.9653973747827398    0.2756444337224997    0.2000427878291580 Se
   0.9390815853090556    0.4072233810909207    0.2000427878291580 Se
   0.9127657958353714    0.5388023284593417    0.2000427878291580 Se
   0.8864500063616874    0.6703812758277629    0.2000427878291580 Se
   0.8601342168880032    0.8019602231961840    0.2000427878291580 Se
   0.8338184274143187    0.9335391705646050    0.2000427878291580 Se
   0.8607980207851269    0.1353066853442205    0.3229896502366214 Se
   0.8344822313114425    0.2668856327126416    0.3229896502366214 Se
   0.8081664418377583    0.3984645800810626    0.3229896502366214 Se
   0.7818506523640740    0.5300435274494836    0.3229896502366214 Se
   0.7555348628903898    0.6616224748179047    0.3229896502366214 Se
   0.7292190734167058    0.7932014221863257    0.3229896502366214 Se
   0.7029032839430218    0.9247803695547467    0.3229896502366214 Se
   0.6765874944693373    0.0563593169231679    0.3229896502366214 Se
   0.6502717049956530    0.1879382642915889    0.3229896502366214 Se
   0.6239559155219686    0.3195172116600099    0.3229896502366214 Se
   0.5976401260482848    0.4510961590284310    0.3229896502366214 Se
   0.5713243365746007    0.5826751063968520    0.3229896502366214 Se
   0.5450085471009163    0.7142540537652730    0.3229896502366214 Se
   0.5186927576272320    0.8458330011336940    0.3229896502366214 Se
   0.4923769681535479    0.9774119485021152    0.3229896502366213 Se
   0.4660611786798636    0.1089908958705363    0.3229896502366214 Se
   0.4397453892061794    0.2405698432389573    0.3229896502366214 Se
   0.4134295997324954    0.3721487906073784    0.3229896502366214 Se
   0.3871138102588109    0.5037277379757994    0.3229896502366214 Se
   0.3607980207851268    0.6353066853442205    0.3229896502366214 Se
   0.3344822313114427    0.7668856327126414    0.3229896502366214 Se
   0.3081664418377582    0.8984645800810626    0.3229896502366214 Se
   0.2818506523640740    0.0300435274494836    0.3229896502366213 Se
   0.2555348628903898    0.1616224748179047    0.3229896502366213 Se
   0.2292190734167059    0.2932014221863257    0.3229896502366214 Se
   0.2029032839430216    0.4247803695547467    0.3229896502366214 Se
   0.1765874944693375    0.5563593169231679    0.3229896502366214 Se
   0.1502717049956529    0.6879382642915890    0.3229896502366214 Se
   0.1239559155219688    0.8195172116600100    0.3229896502366214 Se
   0.0976401260482846    0.9510961590284310    0.3229896502366213 Se
   0.0713243365746004    0.0826751063968521    0.3229896502366213 Se
   0.0450085471009162    0.2142540537652730    0.3229896502366213 Se
   0.0186927576272320    0.3458330011336941    0.3229896502366213 Se
   0.9923769681535479    0.4774119485021152    0.3229896502366214 Se
   0.9660611786798636    0.6089908958705363    0.3229896502366214 Se
   0.9397453892061793    0.7405698432389572    0.3229896502366214 Se
   0.9134295997324950    0.8721487906073785    0.3229896502366214 Se
   0.8871138102588109    0.0037277379757994    0.3229896502366214 Se
   0.8075681664217902    0.0651343184576725    0.2673459347889960 Se
   0.7812523769481060    0.1967132658260935    0.2673459347889960 Se
   0.7549365874744219    0.3282922131945146    0.2673459347889960 Se
   0.7286207980007378    0.4598711605629356    0.2673459347889959 Se
   0.7023050085270535    0.5914501079313566    0.2673459347889960 Se
   0.6759892190533694    0.7230290552997776    0.2673459347889960 Se
   0.6496734295796849    0.8546080026681987    0.2673459347889960 Se
   0.6233576401060007    0.9861869500366198    0.2673459347889960 Se
   0.5970418506323165    0.1177658974050409    0.2673459347889960 Se
   0.5707260611586323    0.2493448447734619    0.2673459347889960 Se
   0.5444102716849483    0.3809237921418829    0.2673459347889960 Se
   0.5180944822112641    0.5125027395103041    0.2673459347889959 Se
   0.4917786927375796    0.6440816868787250    0.2673459347889959 Se
   0.4654629032638956    0.7756606342471459    0.2673459347889960 Se
   0.4391471137902115    0.9072395816155669    0.2673459347889960 Se
   0.4128313243165270    0.0388185289839882    0.2673459347889960 Se
   0.3865155348428429    0.1703974763524092    0.2673459347889960 Se
   0.3601997453691586    0.3019764237208303    0.2673459347889960 Se
   0.3338839558954744    0.4335553710892514    0.2673459347889960 Se
   0.3075681664217903    0.5651343184576723    0.2673459347889960 Se
   0.2812523769481062    0.6967132658260933    0.2673459347889959 Se
   0.2549365874744219    0.8282922131945145    0.2673459347889960 Se
   0.2286207980007375    0.9598711605629356    0.2673459347889960 Se
   0.2023050085270534    0.0914501079313566    0.2673459347889960 Se
   0.1759892190533692    0.2230290552997777    0.2673459347889960 Se
   0.1496734295796849    0.3546080026681987    0.2673459347889960 Se
   0.1233576401060009    0.4861869500366197    0.2673459347889960 Se
   0.0970418506323165    0.6177658974050407    0.2673459347889960 Se
   0.0707260611586324    0.7493448447734616    0.2673459347889959 Se
   0.0444102716849482    0.8809237921418827    0.2673459347889959 Se
   0.0180944822112639    0.0125027395103040    0.2673459347889960 Se
   0.9917786927375797    0.1440816868787250    0.2673459347889960 Se
   0.9654629032638955    0.2756606342471460    0.2673459347889960 Se
   0.9391471137902112    0.4072395816155671    0.2673459347889960 Se
   0.9128313243165269    0.5388185289839881    0.2673459347889960 Se
   0.8865155348428430    0.6703974763524092    0.2673459347889960 Se
   0.8601997453691588    0.8019764237208302    0.2673459347889960 Se
   0.8338839558954746    0.9335553710892512    0.2673459347889960 Se
   0.8608568339564876    0.1353286826753669    0.3902928416568581 Se
   0.8345410444828033    0.2669076300437880    0.3902928416568581 Se
   0.8082252550091195    0.3984865774122092    0.3902928416568581 Se
   0.7819094655354348    0.5300655247806301    0.3902928416568581 Se
   0.7555936760617505    0.6616444721490512    0.3902928416568581 Se
   0.7292778865880667    0.7932234195174722    0.3902928416568581 Se
   0.7029620971143821    0.9248023668858931    0.3902928416568581 Se
   0.6766463076406980    0.0563813142543144    0.3902928416568580 Se
   0.6503305181670138    0.1879602616227354    0.3902928416568581 Se
   0.6240147286933295    0.3195392089911564    0.3902928416568581 Se
   0.5976989392196453    0.4511181563595775    0.3902928416568581 Se
   0.5713831497459615    0.5826971037279985    0.3902928416568581 Se
   0.5450673602722771    0.7142760510964197    0.3902928416568581 Se
   0.5187515707985929    0.8458549984648406    0.3902928416568581 Se
   0.4924357813249087    0.9774339458332617    0.3902928416568580 Se
   0.4661199918512242    0.1090128932016828    0.3902928416568580 Se
   0.4398042023775400    0.2405918405701037    0.3902928416568580 Se
   0.4134884129038559    0.3721707879385249    0.3902928416568581 Se
   0.3871726234301718    0.5037497353069458    0.3902928416568581 Se
   0.3608568339564875    0.6353286826753669    0.3902928416568581 Se
   0.3345410444828034    0.7669076300437878    0.3902928416568581 Se
   0.3082252550091193    0.8984865774122091    0.3902928416568581 Se
   0.2819094655354347    0.0300655247806301    0.3902928416568580 Se
   0.2555936760617505    0.1616444721490511    0.3902928416568580 Se
   0.2292778865880665    0.2932234195174722    0.3902928416568580 Se
   0.2029620971143823    0.4248023668858932    0.3902928416568580 Se
   0.1766463076406981    0.5563813142543143    0.3902928416568581 Se
   0.1503305181670138    0.6879602616227354    0.3902928416568581 Se
   0.1240147286933298    0.8195392089911562    0.3902928416568581 Se
   0.0976989392196455    0.9511181563595772    0.3902928416568581 Se
   0.0713831497459611    0.0826971037279985    0.3902928416568580 Se
   0.0450673602722769    0.2142760510964195    0.3902928416568580 Se
   0.0187515707985927    0.3458549984648405    0.3902928416568580 Se
   0.9924357813249085    0.4774339458332617    0.3902928416568580 Se
   0.9661199918512243    0.6090128932016827    0.3902928416568581 Se
   0.9398042023775403    0.7405918405701036    0.3902928416568581 Se
   0.9134884129038561    0.8721707879385245    0.3902928416568581 Se
   0.8871726234301717    0.0037497353069459    0.3902928416568580 Se
   0.0707429568664086    0.9433402481279762    0.7999572121708421 Se
   0.2630506491741010    0.0587248635125915    0.7999572121708421 Se
   0.5322814184048703    0.0202633250510531    0.7999572121708421 Se
   0.8015121876356395    0.9818017865895147    0.7999572121708421 Se
   0.1861275722510239    0.2125710173587454    0.7999572121708421 Se
   0.4553583414817932    0.1741094788972069    0.7999572121708421 Se
   0.7245891107125624    0.1356479404356685    0.7999572121708421 Se
   0.9938198799433318    0.0971864019741300    0.7999572121708421 Se
   0.1092044953279470    0.3664171712048993    0.7999572121708421 Se
   0.3784352645587162    0.3279556327433608    0.7999572121708421 Se
   0.6476660337894857    0.2894940942818223    0.7999572121708421 Se
   0.9168968030202549    0.2510325558202838    0.7999572121708421 Se
   0.3015121876356393    0.4818017865895147    0.7999572121708421 Se
   0.5707429568664086    0.4433402481279762    0.7999572121708421 Se
   0.8399737260971779    0.4048787096664377    0.7999572121708421 Se
   0.2245891107125625    0.6356479404356685    0.7999572121708421 Se
   0.4938198799433317    0.5971864019741301    0.7999572121708421 Se
   0.7630506491741009    0.5587248635125914    0.7999572121708421 Se
   0.0322814184048701    0.5202633250510532    0.7999572121708421 Se
   0.1476660337894856    0.7894940942818223    0.7999572121708421 Se
   0.4168968030202548    0.7510325558202836    0.7999572121708421 Se
   0.6861275722510241    0.7125710173587452    0.7999572121708421 Se
   0.9553583414817932    0.6741094788972070    0.7999572121708421 Se
   0.3399737260971778    0.9048787096664378    0.7999572121708421 Se
   0.6092044953279472    0.8664171712048990    0.7999572121708421 Se
   0.8784352645587166    0.8279556327433608    0.7999572121708420 Se
   0.9568534899632127    0.0062960007145845    0.7271899584285132 Se
   0.1491611822709051    0.1216806160991999    0.7271899584285132 Se
   0.4183919515016746    0.0832190776376615    0.7271899584285132 Se
   0.6876227207324437    0.0447575391761230    0.7271899584285132 Se
   0.0722381053478282    0.2755267699453537    0.7271899584285132 Se
   0.3414688745785973    0.2370652314838153    0.7271899584285132 Se
   0.6106996438093667    0.1986036930222768    0.7271899584285132 Se
   0.8799304130401362    0.1601421545607384    0.7271899584285132 Se
   0.9953150284247513    0.4293729237915075    0.7271899584285132 Se
   0.2645457976555204    0.3909113853299691    0.7271899584285132 Se
   0.5337765668862897    0.3524498468684306    0.7271899584285132 Se
   0.8030073361170591    0.3139883084068921    0.7271899584285131 Se
   0.1876227207324435    0.5447575391761230    0.7271899584285132 Se
   0.4568534899632129    0.5062960007145847    0.7271899584285131 Se
   0.7260842591939819    0.4678344622530460    0.7271899584285131 Se
   0.1106996438093667    0.6986036930222769    0.7271899584285131 Se
   0.3799304130401359    0.6601421545607382    0.7271899584285131 Se
   0.6491611822709050    0.6216806160991998    0.7271899584285131 Se
   0.9183919515016741    0.5832190776376615    0.7271899584285132 Se
   0.0337765668862897    0.8524498468684307    0.7271899584285131 Se
   0.3030073361170590    0.8139883084068920    0.7271899584285131 Se
   0.5722381053478283    0.7755267699453535    0.7271899584285131 Se
   0.8414688745785973    0.7370652314838152    0.7271899584285131 Se
   0.2260842591939821    0.9678344622530459    0.7271899584285132 Se
   0.4953150284247513    0.9293729237915075    0.7271899584285131 Se
   0.7645457976555207    0.8909113853299694    0.7271899584285131 Se
   0.1098345685359043    0.0319468431064684    0.6545040291068935 Se
   0.3021422608435966    0.1473314584910838    0.6545040291068935 Se
   0.5713730300743658    0.1088699200295453    0.6545040291068935 Se
   0.8406037993051351    0.0704083815680068    0.6545040291068935 Se
   0.2252191839205196    0.3011776123372376    0.6545040291068935 Se
   0.4944499531512889    0.2627160738756991    0.6545040291068935 Se
   0.7636807223820582    0.2242545354141607    0.6545040291068935 Se
   0.0329114916128275    0.1857929969526222    0.6545040291068935 Se
   0.1482961069974428    0.4550237661833915    0.6545040291068935 Se
   0.4175268762282122    0.4165622277218530    0.6545040291068935 Se
   0.6867576454589811    0.3781006892603145    0.6545040291068935 Se
   0.9559884146897506    0.3396391507987760    0.6545040291068935 Se
   0.3406037993051351    0.5704083815680068    0.6545040291068935 Se
   0.6098345685359043    0.5319468431064686    0.6545040291068935 Se
   0.8790653377666735    0.4934853046449298    0.6545040291068935 Se
   0.2636807223820582    0.7242545354141605    0.6545040291068935 Se
   0.5329114916128274    0.6857929969526223    0.6545040291068935 Se
   0.8021422608435964    0.6473314584910839    0.6545040291068935 Se
   0.0713730300743656    0.6088699200295454    0.6545040291068935 Se
   0.1867576454589812    0.8781006892603144    0.6545040291068935 Se
   0.4559884146897504    0.8396391507987760    0.6545040291068935 Se
   0.7252191839205196    0.8011776123372376    0.6545040291068935 Se
   0.9944499531512887    0.7627160738756992    0.6545040291068935 Se
   0.3790653377666735    0.9934853046449297    0.6545040291068935 Se
   0.6482961069974427    0.9550237661833914    0.6545040291068935 Se
   0.9175268762282121    0.9165622277218531    0.6545040291068935 Se
   0.9533630380697372    0.0038669275979291    0.5991574626168228 Se
   0.1456707303774296    0.1192515429825445    0.5991574626168228 Se
   0.4149014996081990    0.0807900045210061    0.5991574626168228 Se
   0.6841322688389682    0.0423284660594676    0.5991574626168228 Se
   0.0687476534543527    0.2730976968286983    0.5991574626168228 Se
   0.3379784226851218    0.2346361583671599    0.5991574626168228 Se
   0.6072091919158911    0.1961746199056215    0.5991574626168228 Se
   0.8764399611466603    0.1577130814440830    0.5991574626168228 Se
   0.9918245765312758    0.4269438506748522    0.5991574626168228 Se
   0.2610553457620449    0.3884823122133136    0.5991574626168228 Se
   0.5302861149928143    0.3500207737517753    0.5991574626168228 Se
   0.7995168842235835    0.3115592352902368    0.5991574626168228 Se
   0.1841322688389681    0.5423284660594676    0.5991574626168228 Se
   0.4533630380697373    0.5038669275979293    0.5991574626168228 Se
   0.7225938073005066    0.4654053891363906    0.5991574626168228 Se
   0.1072091919158912    0.6961746199056214    0.5991574626168228 Se
   0.3764399611466604    0.6577130814440829    0.5991574626168228 Se
   0.6456707303774296    0.6192515429825447    0.5991574626168228 Se
   0.9149014996081988    0.5807900045210060    0.5991574626168228 Se
   0.0302861149928142    0.8500207737517753    0.5991574626168228 Se
   0.2995168842235835    0.8115592352902367    0.5991574626168228 Se