Nb46 Bi64 Se188
1.0
  15.0973550219618300    0.0000000000000000    0.0000000000000009
   1.1918964500718883   15.8272599216196497    0.0000000000000010
   0.0000000000000000    0.0000000000000000   44.4624158930297497
Nb Bi Se
46 64 188
direct
   0.5752399307631954    0.7093961052596842    0.3447480443666842 Nb
   0.7926312351110215    0.6224395835205538    0.3447480443666842 Nb
   0.1839355829371082    0.6659178443901189    0.3447480443666842 Nb
   0.4013268872849342    0.5789613226509883    0.3447480443666842 Nb
   0.6187181916327602    0.4920048009118579    0.3447480443666842 Nb
   0.8361094959805864    0.4050482791727278    0.3447480443666842 Nb
   0.0100225394588474    0.5354830617814234    0.3447480443666842 Nb
   0.2274138438066733    0.4485265400422927    0.3447480443666842 Nb
   0.4448051481544995    0.3615700183031625    0.3447480443666842 Nb
   0.6621964525023256    0.2746134965640321    0.3447480443666842 Nb
   0.8795877568501517    0.1876569748249014    0.3447480443666842 Nb
   0.0535008003284125    0.3180917574335971    0.3447480443666842 Nb
   0.2708921046762386    0.2311352356944668    0.3447480443666842 Nb
   0.4882834090240647    0.1441787139553362    0.3447480443666842 Nb
   0.7056747133718910    0.0572221922162058    0.3447480443666842 Nb
   0.9230660177197167    0.9702656704770752    0.3447480443666842 Nb
   0.0969790611979778    0.1007004530857711    0.3447480443666842 Nb
   0.3143703655458039    0.0137439313466407    0.3447480443666842 Nb
   0.5317616698936301    0.9267874096075103    0.3447480443666842 Nb
   0.7491529742414559    0.8398308878683798    0.3447480443666842 Nb
   0.1404573220675430    0.8833091487379452    0.3447480443666842 Nb
   0.3578486264153691    0.7963526269988146    0.3447480443666842 Nb
   0.9665442785892822    0.7528743661292494    0.3447480443666842 Nb
   0.5750894958476661    0.7088057689566739    0.2065134900768983 Nb
   0.7924808001954922    0.6218492472175436    0.2065134900768983 Nb
   0.1837851480215790    0.6653275080871091    0.2065134900768983 Nb
   0.4011764523694051    0.5783709863479785    0.2065134900768983 Nb
   0.6185677567172310    0.4914144646088480    0.2065134900768983 Nb
   0.8359590610650574    0.4044579428697176    0.2065134900768983 Nb
   0.0098721045433182    0.5348927254784132    0.2065134900768983 Nb
   0.2272634088911442    0.4479362037392827    0.2065134900768983 Nb
   0.4446547132389704    0.3609796820001525    0.2065134900768983 Nb
   0.6620460175867966    0.2740231602610220    0.2065134900768983 Nb
   0.8794373219346224    0.1870666385218913    0.2065134900768983 Nb
   0.0533503654128834    0.3175014211305871    0.2065134900768983 Nb
   0.2707416697607095    0.2305448993914566    0.2065134900768983 Nb
   0.4881329741085356    0.1435883776523263    0.2065134900768983 Nb
   0.7055242784563617    0.0566318559131958    0.2065134900768983 Nb
   0.9229155828041877    0.9696753341740653    0.2065134900768983 Nb
   0.0968286262824486    0.1001101167827610    0.2065134900768983 Nb
   0.3142199306302746    0.0131535950436306    0.2065134900768983 Nb
   0.5316112349781008    0.9261970733045002    0.2065134900768983 Nb
   0.7490025393259271    0.8392405515653698    0.2065134900768983 Nb
   0.1403068871520138    0.8827188124349351    0.2065134900768983 Nb
   0.3576981914998399    0.7957622906958046    0.2065134900768983 Nb
   0.9663938436737529    0.7522840298262394    0.2065134900768983 Nb
   0.0241671713706152    0.9704744836570013    0.7944001694220465 Bi
   0.0241671713706152    0.2204744836570013    0.7944001694220465 Bi
   0.0241671713706152    0.4704744836570014    0.7944001694220465 Bi
   0.0241671713706152    0.7204744836570014    0.7944001694220465 Bi
   0.2741671713706152    0.0954744836570013    0.7944001694220465 Bi
   0.2741671713706152    0.3454744836570013    0.7944001694220465 Bi
   0.2741671713706152    0.5954744836570013    0.7944001694220465 Bi
   0.2741671713706152    0.8454744836570014    0.7944001694220465 Bi
   0.5241671713706152    0.9704744836570013    0.7944001694220465 Bi
   0.5241671713706154    0.2204744836570013    0.7944001694220465 Bi
   0.5241671713706152    0.4704744836570014    0.7944001694220465 Bi
   0.5241671713706153    0.7204744836570015    0.7944001694220465 Bi
   0.7741671713706153    0.0954744836570013    0.7944001694220465 Bi
   0.7741671713706154    0.3454744836570012    0.7944001694220465 Bi
   0.7741671713706155    0.5954744836570013    0.7944001694220465 Bi
   0.7741671713706153    0.8454744836570014    0.7944001694220465 Bi
   0.1051146455556013    0.8460489955706607    0.7047369577364245 Bi
   0.1051146455556013    0.0960489955706605    0.7047369577364245 Bi
   0.1051146455556013    0.3460489955706605    0.7047369577364245 Bi
   0.1051146455556012    0.5960489955706607    0.7047369577364245 Bi
   0.3551146455556012    0.9710489955706606    0.7047369577364245 Bi
   0.3551146455556012    0.2210489955706605    0.7047369577364245 Bi
   0.3551146455556013    0.4710489955706605    0.7047369577364245 Bi
   0.3551146455556012    0.7210489955706606    0.7047369577364245 Bi
   0.6051146455556015    0.8460489955706608    0.7047369577364245 Bi
   0.6051146455556013    0.0960489955706605    0.7047369577364245 Bi
   0.6051146455556011    0.3460489955706606    0.7047369577364245 Bi
   0.6051146455556012    0.5960489955706606    0.7047369577364245 Bi
   0.8551146455556015    0.9710489955706605    0.7047369577364245 Bi
   0.8551146455556015    0.2210489955706605    0.7047369577364245 Bi
   0.8551146455556015    0.4710489955706607    0.7047369577364245 Bi
   0.8551146455556013    0.7210489955706606    0.7047369577364245 Bi
   0.1017802564522932    0.8431785490595194    0.5688586317166681 Bi
   0.1017802564522931    0.0931785490595193    0.5688586317166681 Bi
   0.1017802564522932    0.3431785490595193    0.5688586317166681 Bi
   0.1017802564522932    0.5931785490595194    0.5688586317166681 Bi
   0.3517802564522932    0.9681785490595193    0.5688586317166681 Bi
   0.3517802564522932    0.2181785490595193    0.5688586317166681 Bi
   0.3517802564522932    0.4681785490595194    0.5688586317166681 Bi
   0.3517802564522932    0.7181785490595194    0.5688586317166681 Bi
   0.6017802564522934    0.8431785490595194    0.5688586317166681 Bi
   0.6017802564522932    0.0931785490595193    0.5688586317166681 Bi
   0.6017802564522934    0.3431785490595193    0.5688586317166681 Bi
   0.6017802564522933    0.5931785490595194    0.5688586317166681 Bi
   0.8517802564522932    0.9681785490595194    0.5688586317166681 Bi
   0.8517802564522934    0.2181785490595193    0.5688586317166681 Bi
   0.8517802564522933    0.4681785490595194    0.5688586317166681 Bi
   0.8517802564522933    0.7181785490595194    0.5688586317166681 Bi
   0.9342714461923377    0.0942440469328671    0.4795310425214355 Bi
   0.9342714461923377    0.3442440469328671    0.4795310425214355 Bi
   0.9342714461923377    0.5942440469328670    0.4795310425214355 Bi
   0.9342714461923377    0.8442440469328670    0.4795310425214355 Bi
   0.1842714461923377    0.2192440469328671    0.4795310425214355 Bi
   0.1842714461923377    0.4692440469328671    0.4795310425214355 Bi
   0.1842714461923377    0.7192440469328671    0.4795310425214355 Bi
   0.1842714461923376    0.9692440469328670    0.4795310425214355 Bi
   0.4342714461923377    0.0942440469328671    0.4795310425214355 Bi
   0.4342714461923378    0.3442440469328673    0.4795310425214355 Bi
   0.4342714461923378    0.5942440469328670    0.4795310425214355 Bi
   0.4342714461923376    0.8442440469328668    0.4795310425214355 Bi
   0.6842714461923378    0.2192440469328671    0.4795310425214355 Bi
   0.6842714461923378    0.4692440469328671    0.4795310425214355 Bi
   0.6842714461923378    0.7192440469328670    0.4795310425214355 Bi
   0.6842714461923378    0.9692440469328674    0.4795310425214355 Bi
   0.4880977089276834    0.8102456410806674    0.1686817922364797 Se
   0.7054890132755098    0.7232891193415371    0.1686817922364797 Se
   0.0967933611015965    0.7667673802111025    0.1686817922364797 Se
   0.3141846654494225    0.6798108584719720    0.1686817922364797 Se
   0.5315759697972485    0.5928543367328416    0.1686817922364797 Se
   0.7489672741450746    0.5058978149937110    0.1686817922364797 Se
   0.9228803176233356    0.6363325976024067    0.1686817922364797 Se
   0.1402716219711617    0.5493760758632761    0.1686817922364797 Se
   0.3576629263189877    0.4624195541241457    0.1686817922364797 Se
   0.5750542306668139    0.3754630323850154    0.1686817922364797 Se
   0.7924455350146400    0.2885065106458848    0.1686817922364797 Se
   0.9663585784929007    0.4189412932545806    0.1686817922364797 Se
   0.1837498828407270    0.3319847715154501    0.1686817922364797 Se
   0.4011411871885530    0.2450282497763195    0.1686817922364797 Se
   0.6185324915363792    0.1580717280371892    0.1686817922364797 Se
   0.8359237958842052    0.0711152062980587    0.1686817922364797 Se
   0.0098368393624660    0.2015499889067545    0.1686817922364797 Se
   0.2272281437102921    0.1145934671676241    0.1686817922364797 Se
   0.4446194480581184    0.0276369454284936    0.1686817922364797 Se
   0.6620107524059445    0.9406804236893632    0.1686817922364797 Se
   0.0533151002320312    0.9841586845589284    0.1686817922364797 Se
   0.2707064045798572    0.8972021628197980    0.1686817922364797 Se
   0.8794020567537703    0.8537239019502328    0.1686817922364797 Se
   0.6186990586345982    0.8253381975246323    0.3069115334886653 Se
   0.8360903629824242    0.7383816757855021    0.3069115334886653 Se
   0.2273947108085113    0.7818599366550676    0.3069115334886653 Se
   0.4447860151563374    0.6949034149159370    0.3069115334886653 Se
   0.6621773195041636    0.6079468931768067    0.3069115334886653 Se
   0.8795686238519898    0.5209903714376760    0.3069115334886653 Se
   0.0534816673302507    0.6514251540463717    0.3069115334886653 Se
   0.2708729716780767    0.5644686323072412    0.3069115334886653 Se
   0.4882642760259031    0.4775121105681109    0.3069115334886653 Se
   0.7056555803737289    0.3905555888289806    0.3069115334886653 Se
   0.9230468847215549    0.3035990670898500    0.3069115334886653 Se
   0.0969599281998158    0.4340338496985457    0.3069115334886653 Se
   0.3143512325476420    0.3470773279594151    0.3069115334886653 Se
   0.5317425368954680    0.2601208062202848    0.3069115334886653 Se
   0.7491338412432943    0.1731642844811544    0.3069115334886653 Se
   0.9665251455911201    0.0862077627420238    0.3069115334886653 Se
   0.1404381890693810    0.2166425453507196    0.3069115334886653 Se
   0.3578294934172071    0.1296860236115892    0.3069115334886653 Se
   0.5752207977650331    0.0427295018724588    0.3069115334886653 Se
   0.7926121021128594    0.9557729801333283    0.3069115334886653 Se
   0.1839164499389462    0.9992512410028935    0.3069115334886653 Se
   0.4013077542867723    0.9122947192637632    0.3069115334886653 Se
   0.0100034064606853    0.8688164583941980    0.3069115334886653 Se
   0.4881394247045091    0.8102977233560221    0.2443510399711944 Se
   0.7055307290523352    0.7233412016168919    0.2443510399711944 Se
   0.0968350768784219    0.7668194624864573    0.2443510399711944 Se
   0.3142263812262481    0.6798629407473267    0.2443510399711944 Se
   0.5316176855740742    0.5929064190081964    0.2443510399711944 Se
   0.7490089899219002    0.5059498972690659    0.2443510399711944 Se
   0.9229220334001611    0.6363846798777614    0.2443510399711944 Se
   0.1403133377479872    0.5494281581386309    0.2443510399711944 Se
   0.3577046420958132    0.4624716363995007    0.2443510399711944 Se
   0.5750959464436396    0.3755151146603702    0.2443510399711944 Se
   0.7924872507914656    0.2885585929212397    0.2443510399711944 Se
   0.9664002942697264    0.4189933755299353    0.2443510399711944 Se
   0.1837915986175525    0.3320368537908049    0.2443510399711944 Se
   0.4011829029653785    0.2450803320516744    0.2443510399711944 Se
   0.6185742073132047    0.1581238103125440    0.2443510399711944 Se
   0.8359655116610307    0.0711672885734135    0.2443510399711944 Se
   0.0098785551392916    0.2016020711821092    0.2443510399711944 Se
   0.2272698594871178    0.1146455494429789    0.2443510399711944 Se
   0.4446611638349439    0.0276890277038484    0.2443510399711944 Se
   0.6620524681827700    0.9407325059647180    0.2443510399711944 Se
   0.0533568160088568    0.9842107668342832    0.2443510399711944 Se
   0.2707481203566829    0.8972542450951528    0.2443510399711944 Se
   0.8794437725305959    0.8537759842255875    0.2443510399711944 Se
   0.6187491439290120    0.8253813760444573    0.3825808312104174 Se
   0.8361404482768384    0.7384248543053268    0.3825808312104174 Se
   0.2274447961029252    0.7819031151748921    0.3825808312104175 Se
   0.4448361004507511    0.6949465934357614    0.3825808312104175 Se
   0.6622274047985772    0.6079900716966310    0.3825808312104175 Se
   0.8796187091464033    0.5210335499575007    0.3825808312104174 Se
   0.0535317526246642    0.6514683325661963    0.3825808312104175 Se
   0.2709230569724904    0.5645118108270659    0.3825808312104175 Se
   0.4883143613203165    0.4775552890879355    0.3825808312104175 Se
   0.7057056656681425    0.3905987673488050    0.3825808312104175 Se
   0.9230969700159686    0.3036422456096745    0.3825808312104175 Se
   0.0970100134942294    0.4340770282183701    0.3825808312104175 Se
   0.3144013178420555    0.3471205064792396    0.3825808312104175 Se
   0.5317926221898818    0.2601639847401093    0.3825808312104175 Se
   0.7491839265377078    0.1732074630009788    0.3825808312104175 Se
   0.9665752308855338    0.0862509412618483    0.3825808312104175 Se
   0.1404882743637946    0.2166857238705441    0.3825808312104175 Se
   0.3578795787116207    0.1297292021314136    0.3825808312104175 Se
   0.5752708830594471    0.0427726803922833    0.3825808312104175 Se
   0.7926621874072732    0.9558161586531528    0.3825808312104175 Se
   0.1839665352333599    0.9992944195227180    0.3825808312104175 Se
   0.4013578395811859    0.9123378977835876    0.3825808312104174 Se
   0.0100534917550991    0.8688596369140223    0.3825808312104175 Se
   0.1078893773403110    0.8448327861606706    0.8313182077635203 Se
   0.1078893773403111    0.0948327861606705    0.8313182077635203 Se
   0.1078893773403110    0.3448327861606705    0.8313182077635203 Se
   0.1078893773403111    0.5948327861606705    0.8313182077635203 Se
   0.3578893773403112    0.9698327861606705    0.8313182077635203 Se
   0.3578893773403110    0.2198327861606705    0.8313182077635203 Se
   0.3578893773403111    0.4698327861606704    0.8313182077635203 Se
   0.3578893773403111    0.7198327861606704    0.8313182077635203 Se
   0.6078893773403109    0.8448327861606707    0.8313182077635203 Se
   0.6078893773403109    0.0948327861606705    0.8313182077635203 Se
   0.6078893773403111    0.3448327861606704    0.8313182077635203 Se
   0.6078893773403109    0.5948327861606704    0.8313182077635203 Se
   0.8578893773403110    0.9698327861606705    0.8313182077635203 Se
   0.8578893773403113    0.2198327861606704    0.8313182077635203 Se
   0.8578893773403112    0.4698327861606704    0.8313182077635203 Se
   0.8578893773403111    0.7198327861606705    0.8313182077635203 Se
   0.9395895776410766    0.0965710954003960    0.7495056388254159 Se
   0.9395895776410766    0.3465710954003960    0.7495056388254159 Se
   0.9395895776410766    0.5965710954003960    0.7495056388254159 Se
   0.9395895776410766    0.8465710954003960    0.7495056388254159 Se
   0.1895895776410766    0.2215710954003960    0.7495056388254159 Se
   0.1895895776410767    0.4715710954003962    0.7495056388254159 Se
   0.1895895776410767    0.7215710954003960    0.7495056388254159 Se
   0.1895895776410766    0.9715710954003959    0.7495056388254159 Se
   0.4395895776410766    0.0965710954003960    0.7495056388254159 Se
   0.4395895776410768    0.3465710954003959    0.7495056388254159 Se
   0.4395895776410767    0.5965710954003959    0.7495056388254159 Se
   0.4395895776410768    0.8465710954003960    0.7495056388254159 Se
   0.6895895776410768    0.2215710954003960    0.7495056388254159 Se
   0.6895895776410768    0.4715710954003960    0.7495056388254159 Se
   0.6895895776410769    0.7215710954003960    0.7495056388254159 Se
   0.6895895776410769    0.9715710954003961    0.7495056388254159 Se
   0.0227238214700464    0.9708104732545446    0.6677845033197066 Se
   0.0227238214700464    0.2208104732545446    0.6677845033197066 Se
   0.0227238214700464    0.4708104732545447    0.6677845033197066 Se
   0.0227238214700464    0.7208104732545448    0.6677845033197066 Se
   0.2727238214700464    0.0958104732545446    0.6677845033197066 Se
   0.2727238214700464    0.3458104732545447    0.6677845033197066 Se
   0.2727238214700464    0.5958104732545448    0.6677845033197066 Se
   0.2727238214700465    0.8458104732545446    0.6677845033197066 Se
   0.5227238214700464    0.9708104732545446    0.6677845033197066 Se
   0.5227238214700464    0.2208104732545448    0.6677845033197066 Se
   0.5227238214700464    0.4708104732545448    0.6677845033197066 Se
   0.5227238214700464    0.7208104732545446    0.6677845033197066 Se
   0.7727238214700464    0.0958104732545446    0.6677845033197066 Se
   0.7727238214700467    0.3458104732545447    0.6677845033197066 Se
   0.7727238214700466    0.5958104732545446    0.6677845033197066 Se
   0.7727238214700466    0.8458104732545447    0.6677845033197066 Se
   0.9344660867135610    0.0944278524123506    0.6055580957863087 Se
   0.9344660867135610    0.3444278524123507    0.6055580957863087 Se
   0.9344660867135610    0.5944278524123505    0.6055580957863087 Se
   0.9344660867135610    0.8444278524123507    0.6055580957863087 Se
   0.1844660867135611    0.2194278524123508    0.6055580957863087 Se
   0.1844660867135611    0.4694278524123505    0.6055580957863087 Se
   0.1844660867135610    0.7194278524123506    0.6055580957863087 Se
   0.1844660867135611    0.9694278524123506    0.6055580957863087 Se
   0.4344660867135611    0.0944278524123507    0.6055580957863087 Se
   0.4344660867135611    0.3444278524123506    0.6055580957863087 Se
   0.4344660867135611    0.5944278524123507    0.6055580957863087 Se
   0.4344660867135611    0.8444278524123507    0.6055580957863087 Se
   0.6844660867135611    0.2194278524123506    0.6055580957863087 Se
   0.6844660867135611    0.4694278524123506    0.6055580957863087 Se
   0.6844660867135614    0.7194278524123506    0.6055580957863087 Se
   0.6844660867135611    0.9694278524123506    0.6055580957863087 Se
   0.0178945454269821    0.9682469705420993    0.5241890951556734 Se
   0.0178945454269822    0.2182469705420993    0.5241890951556734 Se
   0.0178945454269821    0.4682469705420993    0.5241890951556734 Se
   0.0178945454269821    0.7182469705420995    0.5241890951556734 Se
   0.2678945454269822    0.0932469705420994    0.5241890951556734 Se
   0.2678945454269822    0.3432469705420993    0.5241890951556734 Se
   0.2678945454269820    0.5932469705420994    0.5241890951556734 Se
   0.2678945454269822    0.8432469705420994    0.5241890951556734 Se
   0.5178945454269821    0.9682469705420993    0.5241890951556734 Se
   0.5178945454269822    0.2182469705420993    0.5241890951556734 Se
   0.5178945454269822    0.4682469705420995    0.5241890951556734 Se
   0.5178945454269821    0.7182469705420994    0.5241890951556734 Se
   0.7678945454269821    0.0932469705420993    0.5241890951556734 Se
   0.7678945454269822    0.3432469705420992    0.5241890951556734 Se
   0.7678945454269822    0.5932469705420992    0.5241890951556734 Se
   0.7678945454269822    0.8432469705420994    0.5241890951556734 Se
   0.1020141881039916    0.8427633385490076    0.4427015086099986 Se
   0.1020141881039917    0.0927633385490075    0.4427015086099986 Se
   0.1020141881039917    0.3427633385490076    0.4427015086099986 Se
   0.1020141881039917    0.5927633385490076    0.4427015086099986 Se
   0.3520141881039917    0.9677633385490075    0.4427015086099986 Se
   0.3520141881039917    0.2177633385490076    0.4427015086099986 Se
   0.3520141881039917    0.4677633385490077    0.4427015086099986 Se
   0.3520141881039916    0.7177633385490075    0.4427015086099986 Se
   0.6020141881039915    0.8427633385490075    0.4427015086099986 Se
   0.6020141881039917    0.0927633385490075    0.4427015086099986 Se
   0.6020141881039919    0.3427633385490076    0.4427015086099986 Se
   0.6020141881039915    0.5927633385490076    0.4427015086099986 Se
   0.8520141881039919    0.9677633385490075    0.4427015086099986 Se
   0.8520141881039919    0.2177633385490076    0.4427015086099986 Se
   0.8520141881039919    0.4677633385490074    0.4427015086099986 Se
   0.8520141881039915    0.7177633385490074    0.4427015086099986 Se
