Nb76 Bi104 Se308
1.0
  15.0973550219618300    0.0000000000000000    0.0000000000000009
   0.0000000016020113   26.1493859574585521    0.0000000000000016
   0.0000000000000000    0.0000000000000000   49.9893053307188922
Nb Bi Se
76 104 308
direct
   0.7258808175544077    0.1308554961540931    0.3552122212988081 Nb
   0.7055640475522091    0.2590706241657382    0.3568811738151553 Nb
   0.6763285629637099    0.3870515225420096    0.3567723613237238 Nb
   0.6550605634903900    0.5247672125956809    0.3566149191343548 Nb
   0.6284204421402051    0.6491865448628575    0.3587453688772222 Nb
   0.5961085147120208    0.7791534635815996    0.3591152864354485 Nb
   0.5673440425387271    0.9137888733220245    0.3559290041298598 Nb
   0.5439185605062744    0.0464721175821537    0.3581856117969052 Nb
   0.5223634952370877    0.1771753865647415    0.3558487109208227 Nb
   0.4833026971467237    0.3057238065799306    0.3556636052141418 Nb
   0.4658694803595140    0.4423053725323722    0.3568911499907902 Nb
   0.4425668512591479    0.5728517604208661    0.3579100940241274 Nb
   0.4143463646980320    0.7055448078139949    0.3574910387207013 Nb
   0.3847804376667002    0.8348084586480534    0.3571868771290062 Nb
   0.3616530978487457    0.9713512897645421    0.3545967676630957 Nb
   0.3314302513106427    0.1046154183407329    0.3572230970488928 Nb
   0.3117109786946938    0.2309417853961647    0.3565836334145277 Nb
   0.2906321042169588    0.3627264961330924    0.3577317833810373 Nb
   0.2601043095725961    0.4957989131373048    0.3541581156405492 Nb
   0.2242584282680536    0.6282240354971884    0.3571521620943123 Nb
   0.2052661585262825    0.7584179058842022    0.3577280979353155 Nb
   0.1741444238836570    0.8888713759445207    0.3589821732143789 Nb
   0.1557061338882361    0.0231462649658445    0.3562929909950007 Nb
   0.1242914761945344    0.1519626746080976    0.3590452999595896 Nb
   0.0952171188891695    0.2835823228639103    0.3560283552054347 Nb
   0.0739814906623230    0.4112866392879805    0.3564991018431222 Nb
   0.0462867178351313    0.5492420869561304    0.3563095104942181 Nb
   0.0214554412380309    0.6800164349791648    0.3577406013642656 Nb
   0.9828043910694402    0.8094663460941682    0.3562396397250628 Nb
   0.9676048584285305    0.9441808344613344    0.3572741404060542 Nb
   0.9459268749397988    0.0775665467424287    0.3550074180731072 Nb
   0.9091051690251787    0.1977930848730360    0.3587137247833062 Nb
   0.8926592005268148    0.3390236516389006    0.3544141038212938 Nb
   0.8625880153482317    0.4679982514132241    0.3559687169000590 Nb
   0.8366732316016356    0.6012709615846996    0.3565061592520498 Nb
   0.8074684978647172    0.7296827529246613    0.3578299391756455 Nb
   0.7827902736371763    0.8620000797097289    0.3563592163971375 Nb
   0.7557154408255068    0.9922397859042820    0.3568809858490302 Nb
   0.7373305372024676    0.1266986709142459    0.2330657342647369 Nb
   0.6954204234371314    0.2576101349114500    0.2334375108240359 Nb
   0.6701138435082061    0.3858409557645438    0.2315408062189732 Nb
   0.6460489721110751    0.5241654250146385    0.2350488425120304 Nb
   0.6242215511095811    0.6538597817436290    0.2325483707551231 Nb
   0.5964753072028648    0.7857896253547665    0.2339157856505974 Nb
   0.5726008448578009    0.9145635022523917    0.2334073969361812 Nb
   0.5389431933589514    0.0489880226357459    0.2347721479992810 Nb
   0.5170157086997588    0.1819234727097449    0.2336512988755559 Nb
   0.4967141713123165    0.3099019091190517    0.2335993832080668 Nb
   0.4749055753592618    0.4471282708828395    0.2331228576953138 Nb
   0.4386575954881671    0.5760800073724258    0.2326152795759235 Nb
   0.4077748510088808    0.7036555732945746    0.2320286473076214 Nb
   0.3840216851377901    0.8399564763140462    0.2346614339239114 Nb
   0.3618560008730981    0.9705076628822550    0.2336061036730389 Nb
   0.3364154536824777    0.1000193164939255    0.2354782265472798 Nb
   0.3092770197148558    0.2320393765528522    0.2324534235711020 Nb
   0.2795581045540003    0.3624379408133516    0.2353419833330437 Nb
   0.2501177855977679    0.4946972268154196    0.2365686328135812 Nb
   0.2237183275633408    0.6252067014033867    0.2347509497795783 Nb
   0.2052951288161161    0.7601157821508806    0.2344204196605882 Nb
   0.1768315775469539    0.8911984768547532    0.2328578521234062 Nb
   0.1565077351836434    0.0213112825374931    0.2321355045342383 Nb
   0.1220043836293604    0.1480678099422374    0.2321624506378742 Nb
   0.0971173166664820    0.2865555379751281    0.2322639631463758 Nb
   0.0664522548562492    0.4141687642263563    0.2347523595485481 Nb
   0.0429898619861773    0.5442966205940568    0.2314907436223312 Nb
   0.0127023660692738    0.6791519568877651    0.2329098599688015 Nb
   0.9954204187353888    0.8114877871146513    0.2331898553404306 Nb
   0.9732327487033862    0.9425402255687977    0.2331023047768695 Nb
   0.9420589877419997    0.0739397743401800    0.2341035988252591 Nb
   0.9169551373194391    0.2028223616149313    0.2312758730381784 Nb
   0.8796206721745033    0.3347498189185856    0.2324832485012523 Nb
   0.8627008080054911    0.4689699506027901    0.2322662461266995 Nb
   0.8389859415386388    0.5989598740032540    0.2349381291585684 Nb
   0.8109522724229579    0.7327652484278311    0.2329944840616543 Nb
   0.7755620677121420    0.8629614230403090    0.2323578254009525 Nb
   0.7564501043266482    0.9948789098470278    0.2334327036621056 Nb
   0.1087480693916046    0.0347964445718552    0.7662960410051666 Bi
   0.2984203516619502    0.1421488545027264    0.7686060804791855 Bi
   0.5714970975151153    0.1078258228050734    0.7686295116719347 Bi
   0.8405515172541670    0.0664577142087398    0.7664809234310941 Bi
   0.2300123720252323    0.3011419422002621    0.7667313378020362 Bi
   0.4916837430049410    0.2667492722823915    0.7653078036292937 Bi
   0.7611210821833985    0.2211883761929360    0.7684139422972945 Bi
   0.0300808166300705    0.1865445791482470    0.7677497904001208 Bi
   0.1462199844488639    0.4547030421279917    0.7645059027960567 Bi
   0.4195575379417784    0.4186023612960872    0.7685413620707998 Bi
   0.6852011959565706    0.3796292722716515    0.7678570913466306 Bi
   0.9545238486957336    0.3408849512169078    0.7662948977872646 Bi
   0.3383733976063099    0.5678247862486486    0.7666368222034902 Bi
   0.6076040976861187    0.5349839378721618    0.7660619312518064 Bi
   0.8751293970214480    0.4987585294776649    0.7671803320640695 Bi
   0.2660464568886281    0.7257231016051107    0.7685837328245498 Bi
   0.5359315123124115    0.6839434478241666    0.7678066766777459 Bi
   0.7987332085419726    0.6442810440898075    0.7668627780988752 Bi
   0.0703483246734507    0.6122384289693766    0.7675212053319250 Bi
   0.1878243324655900    0.8806414869613827    0.7697836309952872 Bi
   0.4503061060114416    0.8385350912058676    0.7658781210561584 Bi
   0.7217438212869296    0.8029387389024463    0.7674492343837833 Bi
   0.9908551052527576    0.7612692314571161    0.7660320015511909 Bi
   0.3783578867095024    0.9900847743556559    0.7656954482405059 Bi
   0.6528571740790273    0.9555036514467060    0.7671582596988503 Bi
   0.9145812468126782    0.9181148068626847    0.7660982414501933 Bi
   0.0671229393542818    0.9398657042325906    0.6867992427997037 Bi
   0.2608638927249947    0.0606508655085295    0.6854956109807496 Bi
   0.5235057829970935    0.0202928965043949    0.6891750430730323 Bi
   0.7992373241871259    0.9822514063406089    0.6878150224275096 Bi
   0.1876349590918491    0.2088896203821073    0.6884586373585200 Bi
   0.4532650654959524    0.1728283846323494    0.6878603116703942 Bi
   0.7221081063498856    0.1357561575170831    0.6876493380421971 Bi
   0.9968080108725429    0.0959959054686280    0.6864413198312972 Bi
   0.1050634303660470    0.3667402261516254    0.6855542786124378 Bi
   0.3795959785101553    0.3305874771582828    0.6859603479820240 Bi
   0.6458612760806033    0.2874336163811635    0.6883920445589435 Bi
   0.9114408068144086    0.2499777141257261    0.6866125669495168 Bi
   0.3023606045228550    0.4801517382661424    0.6856906609041521 Bi
   0.5693481232484446    0.4440529243798018    0.6869488225590648 Bi
   0.8383989051786552    0.4018893759535711    0.6890617772691784 Bi
   0.2158724967525921    0.6329472066558944    0.6883898404018124 Bi
   0.4927757276298344    0.5924610200219194    0.6903919264925125 Bi
   0.7630861416189209    0.5607087159526152    0.6890675813895327 Bi
   0.0340731741952560    0.5191066502022876    0.6864586932605348 Bi
   0.1404524550921362    0.7899829361890363    0.6873817693747509 Bi
   0.4233803112777079    0.7503166215476159    0.6902503425050827 Bi
   0.6832396756621999    0.7139937325720775    0.6871693911613129 Bi
   0.9554553978399647    0.6707793383986691    0.6887104587284764 Bi
   0.3417802697584355    0.9044141854484176    0.6868080555243159 Bi
   0.6144640297439400    0.8639185587816215    0.6895908761883094 Bi
   0.8833827690043065    0.8276973800172114    0.6889496971822145 Bi
   0.0653077153386365    0.9422059598171091    0.5642669676755420 Bi
   0.2611089429879030    0.0557753898950005    0.5687141502742282 Bi
   0.5294686868200558    0.0111548952593961    0.5663449506060892 Bi
   0.7977938648626413    0.9812123527730211    0.5661564412446062 Bi
   0.1836335861509763    0.2062397027571808    0.5680016596439380 Bi
   0.4550011250362575    0.1739227478433903    0.5681833204574934 Bi
   0.7165425325391607    0.1296916802354133    0.5675547863711560 Bi
   0.9904830065049997    0.0928738042926910    0.5674715312121872 Bi
   0.1020118071816433    0.3658097871712263    0.5642303568284065 Bi
   0.3704311827350128    0.3271286642962248    0.5631149330530152 Bi
   0.6418892891715635    0.2850886539546712    0.5681496808335310 Bi
   0.9190422241620096    0.2459399824908368    0.5680183790911653 Bi
   0.2901796088548185    0.4804778748310062    0.5664348003799079 Bi
   0.5693265863211864    0.4417761910957776    0.5680391342685297 Bi
   0.8319021189494477    0.4027082253536592    0.5670037803496933 Bi
   0.2218783239484358    0.6314811336041262    0.5665061417364629 Bi
   0.4844943949286882    0.5994231510573521    0.5666545752672416 Bi
   0.7569093589310096    0.5549426724222827    0.5699651279611934 Bi
   0.0381487433749258    0.5170806908417160    0.5660458554963912 Bi
   0.1447694835831544    0.7828826848403603    0.5665125354778684 Bi
   0.4129455013538601    0.7472249255796735    0.5659234573662414 Bi
   0.6796920017232347    0.7079209377286757    0.5676079952723793 Bi
   0.9558122145961971    0.6682661793377502    0.5658887792909721 Bi
   0.3406575146020077    0.9007229281430060    0.5647104496537380 Bi
   0.5998432898264695    0.8611287226558524    0.5675668017635650 Bi
   0.8770179940941043    0.8256759713955431    0.5661789137280212 Bi
   0.9576404535538744    0.0011970816962607    0.4870789253087496 Bi
   0.1512206633100028    0.1228253322717943    0.4874825987413118 Bi
   0.4202968718993831    0.0786777551948890    0.4872440961860971 Bi
   0.6862456135777257    0.0431053924811003    0.4878156880998163 Bi
   0.0703544212048421    0.2711521315982217    0.4868383419152055 Bi
   0.3375929031711471    0.2343290799369495    0.4860992197029994 Bi
   0.6055056872927759    0.1899224117604038    0.4910814179552905 Bi
   0.8846103960076328    0.1610528542284762    0.4873109841143430 Bi
   1.0022591155444258    0.4248400708829148    0.4864113515170548 Bi
   0.2697857658277905    0.3889193969039279    0.4877629616155735 Bi
   0.5313091825889307    0.3499579565190588    0.4879709594096554 Bi
   0.8016245469514804    0.3159548939363457    0.4867516610277315 Bi
   0.1798684053292192    0.5428135135599039    0.4878887772227648 Bi
   0.4585443792695888    0.5038232405485057    0.4859565956262350 Bi
   0.7167326744262775    0.4650930471144706    0.4876530657378718 Bi
   0.1081848490933763    0.6959843066767503    0.4906133726698880 Bi
   0.3785886811974301    0.6531597985231188    0.4854432988735257 Bi
   0.6516503136019295    0.6234041558708300    0.4861570950150584 Bi
   0.9187616089621349    0.5817430176307924    0.4879348624527416 Bi
   0.0288614898615752    0.8488295980035144    0.4865491977414634 Bi
   0.3010666168405332    0.8110080024062014    0.4877769569917844 Bi
   0.5682685862648321    0.7713129618241972    0.4856717019390083 Bi
   0.8365286082928345    0.7358754796095701    0.4863052577763655 Bi
   0.2255946808906582    0.9637284755523701    0.4881481800114177 Bi
   0.4946354218654813    0.9276980959564954    0.4879944141839053 Bi
   0.7605505191853914    0.8885142258550065    0.4870171517478552 Bi
   0.8072785303617682    0.0688894767531935    0.2006705522049967 Se
   0.7777563286635866    0.1962967485614913    0.1997130776721412 Se
   0.7595115084248336    0.3282005266341932    0.2023313364828333 Se
   0.7221680972104957    0.4577397911795094    0.2008011623185919 Se
   0.6986665189285808    0.5929024829531047    0.2000847337022273 Se
   0.6750592876452476    0.7267898872777625    0.1992218558051311 Se
   0.6490550126570757    0.8543247608981515    0.2010878605129169 Se
   0.6253400340509671    0.9888119108582557    0.2015265565592692 Se
   0.5974569299700545    0.1168370053532226    0.2002319664399230 Se
   0.5704448067376943    0.2462760747407461    0.1992596770533212 Se
   0.5545951077771526    0.3816308758585369    0.2006607314403549 Se
   0.5196921794267484    0.5133512069539184    0.1991597266390237 Se
   0.4903828477127561    0.6436183585733561    0.1992781313340598 Se
   0.4608588673213820    0.7714251821744127    0.2004043737683090 Se
   0.4395930208457337    0.9052838183937100    0.2023511450997221 Se
   0.4195902799018701    0.0384347559796565    0.2017607522505843 Se
   0.3943377298349247    0.1736459404782988    0.2015520651477108 Se
   0.3604327136931181    0.3040889489783157    0.1999282004865247 Se
   0.3310060541551861    0.4346584387111104    0.1991957238082683 Se
   0.3008571052188633    0.5669874884175788    0.2016996338206281 Se
   0.2828833535402157    0.6958275084419072    0.2002316345463369 Se
   0.2574447413338745    0.8310820951115635    0.2013216032441703 Se
   0.2255226010653805    0.9628449480401363    0.2005640343167284 Se
   0.2002657759556157    0.0902384255209243    0.1997656454547130 Se
   0.1749204214766225    0.2246385993649835    0.1998271187750444 Se
   0.1430745480645217    0.3563174680210364    0.1980250142051526 Se
   0.1173497866626655    0.4869356002565987    0.2004015017668793 Se
   0.0949356325547759    0.6125713443647833    0.2010110193278733 Se
   0.0760488342036128    0.7459676531013257    0.2010777654438833 Se
   0.0548528533669039    0.8840200367103728    0.2002327587114306 Se
   0.0154954133015536    0.0134904030744519    0.1994095508249490 Se
   0.9934689378995356    0.1378473922583660    0.1986631058884490 Se
   0.9689584033706484    0.2795948414765430    0.2003730760716552 Se
   0.9481789688759428    0.4052986322317261    0.2001672048519866 Se
   0.9077875024990140    0.5413711943696551    0.2036005120219231 Se
   0.8918720370421227    0.6657569035245224    0.2000614083555624 Se
   0.8599284443939580    0.8057646358192601    0.2007586334312222 Se
   0.8305452616609544    0.9322215414415816    0.2003139108642621 Se
   0.8549695696108769    0.1370896534574407    0.3234603263039907 Se
   0.8278078028641646    0.2671843672116636    0.3254696153364433 Se
   0.8113116574646547    0.4014009430769100    0.3212030726407822 Se
   0.7839938440551208    0.5340931758409149    0.3224281634063723 Se
   0.7490232505508816    0.6592694674961725    0.3256748502046027 Se
   0.7328482508689630    0.7898338436832111    0.3259915587250233 Se
   0.6977636364129326    0.9239099159508543    0.3212579902186916 Se
   0.6756094002286402    0.0558536633804866    0.3209515655189608 Se
   0.6426749190327412    0.1844041228903163    0.3239046774240808 Se
   0.6262532212076399    0.3194662219294116    0.3255491496857890 Se
   0.5973683523103740    0.4539783705035613    0.3230799224251178 Se
   0.5626891822700355    0.5865221171724301    0.3242512053156864 Se
   0.5484564595757684    0.7164767268796456    0.3221926756427308 Se
   0.5293776224595061    0.8450467467149482    0.3229923473086853 Se
   0.4911403559201676    0.9799999894746740    0.3218898112208595 Se
   0.4639280997501309    0.1087575879825056    0.3236911820614864 Se
   0.4401904672934109    0.2458053038969047    0.3220931072338680 Se
   0.4103277586954820    0.3700799179005609    0.3240821984108984 Se
   0.3823023682883966    0.5015466960283635    0.3251185010508188 Se
   0.3583758921801548    0.6369482489161804    0.3223388265385769 Se
   0.3383456431998885    0.7726538608868521    0.3201771715655986 Se
   0.3117573701680451    0.8991054573588790    0.3230328062103194 Se
   0.2790654130754215    0.0253909677782889    0.3216894916467742 Se
   0.2565920455553923    0.1626547133373220    0.3223046734816297 Se
   0.2344186433088853    0.2919222006110859    0.3230920774999148 Se
   0.2019365127647455    0.4249689599032690    0.3249288898038071 Se
   0.1734822007608314    0.5593569937824284    0.3229587392158367 Se
   0.1545191916171675    0.6848949934438725    0.3224629034016807 Se
   0.1210889497705979    0.8169246614376457    0.3213850118918158 Se
   0.0985159936830777    0.9504264118537880    0.3236033994924729 Se
   0.0739606641193176    0.0828498395850401    0.3230263673307963 Se
   0.0463024394702896    0.2138951098134881    0.3223302236187014 Se
   0.0205066087193961    0.3493158501264861    0.3216126415921880 Se
   0.9866693458392906    0.4759676383033930    0.3219472898575157 Se
   0.9593946732330432    0.6050777670199354    0.3200497288239526 Se
   0.9359664196126311    0.7403593022828775    0.3229397900791448 Se
   0.9114078088069637    0.8754381661643051    0.3236637141347843 Se
   0.8956217336022565    0.0041165608560980    0.3241545083761818 Se
   0.8003129884032391    0.0652374350318809    0.2681012173855446 Se
   0.7890367739038517    0.1947004067838286    0.2656140038990821 Se
   0.7601323703887978    0.3294409493469624    0.2653270127993768 Se
   0.7314927097148711    0.4623228911420347    0.2678963534376210 Se
   0.6991239650079215    0.5916900285127752    0.2672893506110928 Se
   0.6745993867788295    0.7226476839147035    0.2687030294033736 Se
   0.6518452388385149    0.8541327706072992    0.2674373706456826 Se
   0.6232100680625650    0.9882947312851026    0.2684007669536897 Se
   0.5957070549301979    0.1155122134193486    0.2691323208548970 Se
   0.5707021723843089    0.2482463520481025    0.2679844244504136 Se
   0.5385908475270411    0.3827538186256448    0.2696618149582986 Se
   0.5129838843936797    0.5119452453583696    0.2682426779030008 Se
   0.4976488908150272    0.6451532415750989    0.2655139679889029 Se
   0.4675133174111336    0.7763603781817341    0.2696774680095223 Se
   0.4422649359277610    0.9077618868224718    0.2647253199963390 Se
   0.4122766421306526    0.0413350416696663    0.2681905028909252 Se
   0.3788426795380060    0.1691801079444174    0.2681237789881863 Se
   0.3619939166607963    0.2987386757389799    0.2678765494783370 Se
   0.3342126348489178    0.4304035190015065    0.2648784908836295 Se
   0.3095156798216948    0.5692670482891800    0.2661365642118398 Se
   0.2787659609139114    0.6943842942086188    0.2663064036918181 Se
   0.2575993701139729    0.8264267210896988    0.2667397131844749 Se
   0.2331349182193208    0.9630145737295672    0.2659927974267293 Se
   0.2025444977821455    0.0907578061908060    0.2668398419553751 Se
   0.1724094408564091    0.2229697781769350    0.2664684908529629 Se
   0.1482790072883419    0.3554168663183156    0.2671402446577150 Se
   0.1230740535575567    0.4828422554171154    0.2670099369026348 Se
   0.0968341040582335    0.6132771170046792    0.2665351815472499 Se
   0.0718288628844555    0.7485328231961763    0.2673594542784447 Se
   0.0486676554196503    0.8772967444090143    0.2654213432207317 Se
   0.0190494036329000    0.0102816020322655    0.2658009673393182 Se
   0.9985279848101155    0.1412169532392133    0.2675931168722307 Se
   0.9716772940510486    0.2765816463134101    0.2660842767027434 Se
   0.9373680960670369    0.4045030487823648    0.2667278838238761 Se
   0.9108169597467581    0.5413219728097591    0.2645988012013723 Se
   0.8871112362957753    0.6711791638035464    0.2663344314097895 Se
   0.8602538769926381    0.8003543792380701    0.2677425878345383 Se
   0.8323627171820570    0.9315463230186963    0.2649724783838198 Se
   0.8609663435336941    0.1341975347576795    0.3920909250637066 Se
   0.8342273614907367    0.2689902583406359    0.3892818022083455 Se
   0.8053009600761212    0.4000690467663253    0.3900909691639697 Se
   0.7815284973145614    0.5283284459002151    0.3927665975813615 Se
   0.7527148584232223    0.6640628345736881    0.3906987996313466 Se
   0.7291193843297670    0.7932761891215301    0.3917446836159412 Se
   0.6998059850697346    0.9199473205171330    0.3896891932943164 Se
   0.6798114554876654    0.0562528079447879    0.3897921860350189 Se
   0.6513405154180786    0.1895129776692267    0.3907813279193163 Se
   0.6115539030041259    0.3154089528959913    0.3889285221485465 Se
   0.5988019633036396    0.4526499155178015    0.3914614820372114 Se
   0.5687360834763411    0.5847269796922897    0.3904393821864169 Se
   0.5497598122592295    0.7169789681363613    0.3912626421929750 Se
   0.5171634584388685    0.8458733867141719    0.3881207092282414 Se
   0.4968800913252936    0.9722563366497784    0.3921103893810214 Se
   0.4618612664473332    0.1058070671244007    0.3920764111975916 Se
   0.4363695152542832    0.2390066141071865    0.3900494855766687 Se
   0.4239782943721300    0.3749530754907132    0.3887181390786142 Se
   0.3949619492210879    0.5041325574274775    0.3908929822453506 Se
   0.3583825842683755    0.6328234790446169    0.3900277483621508 Se
   0.3325001579378567    0.7642010811651522    0.3900329100759156 Se
   0.3070590405197388    0.8967703956588419    0.3899819896278551 Se
   0.2857324688758718    0.0279658381289953    0.3912124465376287 Se
   0.2547163888063143    0.1587111462501240    0.3900530906067461 Se
   0.2300794082543312    0.2886238716016536    0.3899780907986006 Se
   0.1979021789099277    0.4229658728309696    0.3896420530492758 Se
   0.1761379920283180    0.5594429700679756    0.3903917057011450 Se
   0.1553237318942235    0.6898486040174323    0.3895514494529195 Se
   0.1242849558073553    0.8166620192050126    0.3886171363447484 Se
   0.0977143460052771    0.9478159058422688    0.3909314580756387 Se
   0.0726680365869721    0.0878573139569194    0.3908545476582514 Se
   0.0461467346060006    0.2144588220827656    0.3915619742395243 Se
   0.0194532760625584    0.3443405920523810    0.3893872954039260 Se
   0.9953402725386276    0.4788094311684987    0.3874888123162875 Se
   0.9616110383861241    0.6119332335404164    0.3890943687943659 Se
   0.9343192301054698    0.7426545794038162    0.3910148457215590 Se
   0.9126046965665322    0.8721284360744114    0.3932148009409638 Se
   0.8820198816267484    0.0061551563988082    0.3906483878936136 Se
   0.0677638739126060    0.9436104042104539    0.8006760353997380 Se
   0.2641724156153862    0.0539974641555783    0.8021720685847114 Se
   0.5283313209382962    0.0223342093507993    0.8006881350958058 Se
   0.8045103610749609    0.9825460711191253    0.7994368560972342 Se
   0.1882944564451086    0.2123514855032042    0.7986308060193672 Se
   0.4565729804762147    0.1747875921419452    0.8001116314469506 Se
   0.7212476577348448    0.1346960769437476    0.7997185030359901 Se
   0.9925264789412512    0.0957309374890580    0.7979374261874631 Se
   0.1116311977943054    0.3695145500747241    0.7994634374360510 Se
   0.3741689694382496    0.3315072891903043    0.8023438990214545 Se
   0.6497085697961787    0.2855264357000734    0.8012309510391672 Se
   0.9139821103849115    0.2452708472698218    0.8000663031344666 Se
   0.3027196993171453    0.4802809538137635    0.8010768504458765 Se
   0.5701977957282255    0.4424990080648100    0.7985865871041988 Se
   0.8391416257564059    0.4043339073401480    0.7970024706262936 Se
   0.2273190390151905    0.6361059868639274    0.7989395779986512 Se
   0.4925297726737111    0.5925509117060934    0.8010729684972587 Se
   0.7581033114514439    0.5576350689804538    0.8005877374916848 Se
   0.0343529871913719    0.5200855233786840    0.7980983451576782 Se
   0.1541355219085875    0.7877433970530969    0.8007034521092635 Se
   0.4175358554894055    0.7492654066530954    0.7999270133316831 Se
   0.6867692080860731    0.7051140388118332    0.8011244428191244 Se
   0.9550971497111440    0.6722759683615532    0.7999927925544497 Se
   0.3435250412855452    0.9040400810753093    0.7995998674740239 Se
   0.6060150125808031    0.8664422459366928    0.7987478903190535 Se
   0.8782855480495751    0.8244215316354792    0.8025319899444141 Se
   0.9551416922581086    0.0073691896220319    0.7256916248511853 Se
   0.1521210420766350    0.1214544308626114    0.7257536152643035 Se
   0.4119914456183403    0.0828293776330900    0.7287682117583408 Se
   0.6905433876645789    0.0486049840463349    0.7279672480941309 Se
   0.0781690942940219    0.2767640983095316    0.7284695580749970 Se
   0.3416910318699953    0.2356188495312587    0.7271166481361456 Se
   0.6176395774610731    0.1959274750766846    0.7263647243958268 Se
   0.8815960906464493    0.1612955189645518    0.7292478466412143 Se
   0.9939518972517304    0.4309661591724144    0.7294747543821668 Se
   0.2720609027374841    0.3868941920853136    0.7268343600915984 Se
   0.5320684248775188    0.3535833400154995    0.7251349771013224 Se
   0.8057204275553611    0.3122044032861011    0.7265395479982933 Se
   0.1821353888631140    0.5430792890992258    0.7281285991837251 Se
   0.4558961428305338    0.5039454171987201    0.7286751777026323 Se
   0.7208595102963669    0.4695010030542899    0.7265843515985886 Se
   0.1064744723249322    0.6988240981037716    0.7277712475885629 Se
   0.3851259509467836    0.6580301291449793    0.7279890982373536 Se
   0.6513990546679153    0.6215313598592009    0.7246804111851697 Se
   0.9184514620135009    0.5782068408599277    0.7280940911419006 Se
   0.0344580094464293    0.8496164383165893    0.7253407492971552 Se
   0.2967903197231317    0.8132226070857351    0.7269859772718197 Se
   0.5754132031940192    0.7811221042877498    0.7270363499545629 Se
   0.8389962043202667    0.7345512363795310    0.7268896813547339 Se
   0.2210367046511248    0.9673767313487341    0.7262235536315381 Se
   0.4945030933668928    0.9254959146832918    0.7256345241298996 Se
   0.7636514686571867    0.8903778801113222    0.7278035736442235 Se
   0.1090122003157934    0.0307605021190864    0.6535895455314459 Se
   0.3045504585831316    0.1445188098517697    0.6557079687815295 Se
   0.5673486429394751    0.1129988805281064    0.6550046789530184 Se
   0.8349726113641974    0.0685866267616946    0.6560896062102910 Se
   0.2177551140308571    0.3004672268681868    0.6555345418806875 Se
   0.5002493489965690    0.2606771958210399    0.6552146839104022 Se
   0.7658138642056038    0.2227195355518431    0.6536024857972517 Se
   0.0325577178855095    0.1877391064751158    0.6523113917635096 Se
   0.1492800669241220    0.4579848178355457    0.6530971012239078 Se
   0.4159814654631923    0.4157672429794039    0.6542896800556710 Se
   0.6830140849078172    0.3791725849973987    0.6547618230698284 Se
   0.9476540951560422    0.3436797022292368    0.6535086889070139 Se
   0.3438772358429119    0.5724420563253180    0.6564034029163129 Se
   0.6107109030222753    0.5324500924174309    0.6545643624189322 Se
   0.8747563849581012    0.4973657545436905    0.6560557745873413 Se
   0.2627378375518094    0.7241106692763339    0.6536322784394865 Se
   0.5276346414730595    0.6838872292952433    0.6538893382665711 Se
   0.8046661355714820    0.6466848764653013    0.6541897245072770 Se
   0.0719056325297645    0.6114023220958384    0.6556432614407676 Se
   0.1894034676018161    0.8794596184300213    0.6553411004302772 Se
   0.4481746176300109    0.8469137318748331    0.6539874292319769 Se
   0.7284131137623070    0.8011431110557214    0.6568697090106363 Se
   0.9906128871275723    0.7585256266161325    0.6551288023399179 Se
   0.3789118541406554    0.9884718251784297    0.6553163596645468 Se
   0.6490126205586524    0.9542713151044637    0.6536402772703025 Se
   0.9242225126107243    0.9151392065957707    0.6540931614559103 Se
   0.9608055024956883    0.0031921305434652    0.5991231878985214 Se
   0.1459305719034493    0.1154066209150450    0.5984820518131877 Se
   0.4174104359431883    0.0795703348210213    0.5986552977916570 Se
   0.6774749285195003    0.0424519897598337    0.5974531773534745 Se
   0.0630727801145493    0.2744563748315740    0.6009935412471019 Se
   0.3344344232453028    0.2370786006537675    0.5977755860355580 Se
   0.6006871145506510    0.1974755973926167    0.5995621908816656 Se
   0.8711947739777626    0.1636921232498445    0.5979699256496561 Se
   0.9939149972814677    0.4282964772821574    0.5993309533979733 Se
   0.2640532934624962    0.3862896184223615    0.5997769116046673 Se
   0.5255668457928560    0.3496176302921746    0.5974189402603388 Se
   0.7933599309090940    0.3117846974539912    0.5987704892035575 Se
   0.1846845535713942    0.5448651100219116    0.5971801802637774 Se
   0.4517786701047913    0.5050050842093331    0.5997750047713091 Se
   0.7277059103093959    0.4680148974405922    0.6022609506317416 Se
   0.1010790005143760    0.6980444261243404    0.6016794878959338 Se
   0.3733475402496862    0.6575955041766249    0.6008629895154088 Se
   0.6420844316344436    0.6167727229061075    0.5980299525469018 Se
   0.9128251017299771    0.5825991256665506    0.5975665279329127 Se
   0.0205666328660853    0.8485166367263380    0.6011767179804339 Se
   0.2969621632650356    0.8149248783599533    0.5986074190704594 Se