Nb38 Bi52 Se154
1.0
  15.0973550213515413    0.0000000000000000    0.0000000000000009
   7.5486775104850574   13.0746929792577991    0.0000000000000009
   0.0000000000000000    0.0000000000000000   49.9893053307188922
Nb Bi Se
38 52 154
direct
   0.2090937181456391    0.4105248712813037    0.3566429020965913 Nb
   0.3143568760403758    0.5684196081234090    0.3566429020965913 Nb
   0.4196200339351128    0.7263143449655141    0.3566429020965913 Nb
   0.1564621391982706    0.8315775028602509    0.3566429020965913 Nb
   0.2617252970930073    0.9894722397023563    0.3566429020965913 Nb
   0.3669884549877442    0.1473669765444616    0.3566429020965913 Nb
   0.4722516128824812    0.3052617133865667    0.3566429020965913 Nb
   0.5775147707772179    0.4631564502286721    0.3566429020965913 Nb
   0.6827779286719545    0.6210511870707774    0.3566429020965913 Nb
   0.7880410865666917    0.7789459239128824    0.3566429020965913 Nb
   0.5248831918298495    0.8842090818076195    0.3566429020965913 Nb
   0.6301463497245862    0.0421038186497247    0.3566429020965913 Nb
   0.7354095076193231    0.1999985554918300    0.3566429020965913 Nb
   0.8406726655140601    0.3578932923339352    0.3566429020965913 Nb
   0.9459358234087969    0.5157880291760406    0.3566429020965913 Nb
   0.0511989813035336    0.6736827660181456    0.3566429020965913 Nb
   0.8933042444614283    0.9368406607549878    0.3566429020965913 Nb
   0.9985674023561654    0.0947353975970932    0.3566429020965913 Nb
   0.1038305602509019    0.2526301344391984    0.3566429020965913 Nb
   0.2098083357755987    0.4099705220531885    0.2336917587878817 Nb
   0.3150714936703355    0.5678652588952940    0.2336917587878816 Nb
   0.4203346515650724    0.7257599957373992    0.2336917587878816 Nb
   0.1571767568282302    0.8310231536321360    0.2336917587878816 Nb
   0.2624399147229670    0.9889178904742414    0.2336917587878817 Nb
   0.3677030726177039    0.1468126273163466    0.2336917587878817 Nb
   0.4729662305124407    0.3047073641584518    0.2336917587878816 Nb
   0.5782293884071775    0.4626021010005572    0.2336917587878816 Nb
   0.6834925463019144    0.6204968378426625    0.2336917587878816 Nb
   0.7887557041966511    0.7783915746847674    0.2336917587878816 Nb
   0.5255978094598092    0.8836547325795043    0.2336917587878816 Nb
   0.6308609673545459    0.0415494694216097    0.2336917587878817 Nb
   0.7361241252492828    0.1994442062637150    0.2336917587878816 Nb
   0.8413872831440196    0.3573389431058204    0.2336917587878816 Nb
   0.9466504410387563    0.5152336799479255    0.2336917587878816 Nb
   0.0519135989334931    0.6731284167900308    0.2336917587878817 Nb
   0.8940188620913880    0.9362863115268729    0.2336917587878816 Nb
   0.9992820199861246    0.0941810483689782    0.2336917587878817 Nb
   0.1045451778808616    0.2520757852110834    0.2336917587878817 Nb
   0.8462608613270155    0.5268591921123963    0.7671208852038272 Bi
   0.6154916305577849    0.4499361151893194    0.7671208852038272 Bi
   0.9231839382500927    0.2191668844200887    0.7671208852038272 Bi
   0.3847223997885541    0.3730130382662425    0.7671208852038272 Bi
   0.6924147074808616    0.1422438074970118    0.7671208852038272 Bi
   0.0001070151731694    0.9114745767277809    0.7671208852038272 Bi
   0.1539531690193230    0.2960899613431656    0.7671208852038272 Bi
   0.4616454767116309    0.0653207305739348    0.7671208852038272 Bi
   0.7693377844039386    0.8345514998047040    0.7671208852038272 Bi
   0.2308762459424002    0.9883976536508579    0.7671208852038272 Bi
   0.5385685536347077    0.7576284228816271    0.7671208852038272 Bi
   0.3077993228654771    0.6807053459585503    0.7671208852038272 Bi
   0.0770300920962463    0.6037822690354733    0.7671208852038272 Bi
   0.8989841147022926    0.6563692778959523    0.6873709670584138 Bi
   0.6682148839330621    0.5794462009728756    0.6873709670584138 Bi
   0.9759071916253697    0.3486769702036446    0.6873709670584138 Bi
   0.4374456531638310    0.5025231240497986    0.6873709670584138 Bi
   0.7451379608561389    0.2717538932805677    0.6873709670584138 Bi
   0.0528302685484465    0.0409846625113369    0.6873709670584138 Bi
   0.2066764223946003    0.4256000471267216    0.6873709670584138 Bi
   0.5143687300869081    0.1948308163574908    0.6873709670584138 Bi
   0.8220610377792156    0.9640615855882601    0.6873709670584138 Bi
   0.2835994993176773    0.1179077394344139    0.6873709670584138 Bi
   0.5912918070099850    0.8871385086651832    0.6873709670584138 Bi
   0.3605225762407542    0.8102154317421062    0.6873709670584138 Bi
   0.1297533454715234    0.7332923548190293    0.6873709670584138 Bi
   0.8964772233357517    0.6615838355241659    0.5665155440360312 Bi
   0.6657079925665216    0.5846607586010890    0.5665155440360312 Bi
   0.9734003002588293    0.3538915278318582    0.5665155440360312 Bi
   0.4349387617972906    0.5077376816780121    0.5665155440360312 Bi
   0.7426310694895983    0.2769684509087813    0.5665155440360312 Bi
   0.0503233771819060    0.0461992201395504    0.5665155440360312 Bi
   0.2041695310280598    0.4308146047549351    0.5665155440360312 Bi
   0.5118618387203675    0.2000453739857043    0.5665155440360312 Bi
   0.8195541464126749    0.9692761432164736    0.5665155440360312 Bi
   0.2810926079511367    0.1231222970626274    0.5665155440360312 Bi
   0.5887849156434444    0.8923530662933966    0.5665155440360312 Bi
   0.3580156848742138    0.8154299893703197    0.5665155440360312 Bi
   0.1272464541049829    0.7385069124472429    0.5665155440360312 Bi
   0.7185605469521664    0.7125301530718107    0.4870641414761425 Bi
   0.4877913161829359    0.6356070761487337    0.4870641414761425 Bi
   0.7954836238752435    0.4048378453795030    0.4870641414761425 Bi
   0.2570220854137048    0.5586839992256569    0.4870641414761425 Bi
   0.5647143931060123    0.3279147684564261    0.4870641414761425 Bi
   0.8724067007983203    0.0971455376871952    0.4870641414761425 Bi
   0.0262528546444739    0.4817609223025799    0.4870641414761425 Bi
   0.3339451623367817    0.2509916915333491    0.4870641414761425 Bi
   0.6416374700290892    0.0202224607641183    0.4870641414761425 Bi
   0.1031759315675509    0.1740686146102722    0.4870641414761425 Bi
   0.4108682392598587    0.9432993838410414    0.4870641414761425 Bi
   0.1800990084906279    0.8663763069179646    0.4870641414761425 Bi
   0.9493297777213972    0.7894532299948875    0.4870641414761425 Bi
   0.0870127010991856    0.3923849634285699    0.2000427878291580 Se
   0.1922758589939224    0.5502797002706751    0.2000427878291580 Se
   0.2975390168886590    0.7081744371127805    0.2000427878291580 Se
   0.0343811221518169    0.8134375950075173    0.2000427878291580 Se
   0.1396442800465539    0.9713323318496228    0.2000427878291580 Se
   0.2449074379412908    0.1292270686917280    0.2000427878291580 Se
   0.3501705958360276    0.2871218055338331    0.2000427878291580 Se
   0.4554337537307643    0.4450165423759384    0.2000427878291580 Se
   0.5606969116255012    0.6029112792180439    0.2000427878291580 Se
   0.6659600695202382    0.7608060160601489    0.2000427878291580 Se
   0.4028021747833958    0.8660691739548857    0.2000427878291580 Se
   0.5080653326781326    0.0239639107969911    0.2000427878291580 Se
   0.6133284905728696    0.1818586476390964    0.2000427878291580 Se
   0.7185916484676065    0.3397533844812017    0.2000427878291580 Se
   0.8238548063623434    0.4976481213233070    0.2000427878291580 Se
   0.9291179642570800    0.6555428581654119    0.2000427878291580 Se
   0.7712232274149746    0.9187007529022543    0.2000427878291580 Se
   0.8764863853097116    0.0765954897443596    0.2000427878291580 Se
   0.9817495432044484    0.2344902265864648    0.2000427878291580 Se
   0.0687427643512278    0.5333127991234610    0.3229896502366213 Se
   0.1740059222459646    0.6912075359655663    0.3229896502366214 Se
   0.2792690801407013    0.8491022728076716    0.3229896502366214 Se
   0.0161111854038593    0.9543654307024085    0.3229896502366213 Se
   0.1213743432985961    0.1122601675445138    0.3229896502366213 Se
   0.2266375011933330    0.2701549043866191    0.3229896502366213 Se
   0.3319006590880700    0.4280496412287241    0.3229896502366214 Se
   0.4371638169828067    0.5859443780708293    0.3229896502366214 Se
   0.5424269748775438    0.7438391149129350    0.3229896502366214 Se
   0.6476901327722804    0.9017338517550402    0.3229896502366213 Se
   0.3845322380354382    0.0069970096497769    0.3229896502366213 Se
   0.4897953959301750    0.1648917464918822    0.3229896502366213 Se
   0.5950585538249118    0.3227864833339875    0.3229896502366214 Se
   0.7003217117196490    0.4806812201760927    0.3229896502366214 Se
   0.8055848696143856    0.6385759570181980    0.3229896502366214 Se
   0.9108480275091224    0.7964706938603031    0.3229896502366214 Se
   0.7529532906670170    0.0596285885971453    0.3229896502366214 Se
   0.8582164485617539    0.2175233254392506    0.3229896502366214 Se
   0.9634796064564907    0.3754180622813558    0.3229896502366213 Se
   0.0869496541342824    0.3924623144464277    0.2673459347889960 Se
   0.1922128120290192    0.5503570512885330    0.2673459347889960 Se
   0.2974759699237560    0.7082517881306385    0.2673459347889960 Se
   0.0343180751869140    0.8135149460253751    0.2673459347889960 Se
   0.1395812330816508    0.9714096828674804    0.2673459347889960 Se
   0.2448443909763877    0.1293044197095857    0.2673459347889960 Se
   0.3501075488711245    0.2871991565516908    0.2673459347889960 Se
   0.4553707067658614    0.4450938933937961    0.2673459347889960 Se
   0.5606338646605981    0.6029886302359013    0.2673459347889960 Se
   0.6658970225553351    0.7608833670780065    0.2673459347889959 Se
   0.4027391278184928    0.8661465249727435    0.2673459347889960 Se
   0.5080022857132298    0.0240412618148489    0.2673459347889960 Se
   0.6132654436079665    0.1819359986569541    0.2673459347889960 Se
   0.7185286015027034    0.3398307354990593    0.2673459347889960 Se
   0.8237917593974401    0.4977254723411645    0.2673459347889960 Se
   0.9290549172921768    0.6556202091832696    0.2673459347889959 Se
   0.7711601804500717    0.9187781039201119    0.2673459347889960 Se
   0.8764233383448085    0.0766728407622173    0.2673459347889960 Se
   0.9816864962395454    0.2345675776043225    0.2673459347889960 Se
   0.0686904956167034    0.5333924276156495    0.3902928416568580 Se
   0.1739536535114401    0.6912871644577547    0.3902928416568580 Se
   0.2792168114061772    0.8491819012998600    0.3902928416568581 Se
   0.0160589166693349    0.9544450591945969    0.3902928416568581 Se
   0.1213220745640717    0.1123397960367021    0.3902928416568580 Se
   0.2265852324588086    0.2702345328788073    0.3902928416568580 Se
   0.3318483903535455    0.4281292697209125    0.3902928416568580 Se
   0.4371115482482824    0.5860240065630179    0.3902928416568581 Se
   0.5423747061430190    0.7439187434051231    0.3902928416568581 Se
   0.6476378640377559    0.9018134802472284    0.3902928416568580 Se
   0.3844799693009137    0.0070766381419653    0.3902928416568580 Se
   0.4897431271956505    0.1649713749840705    0.3902928416568580 Se
   0.5950062850903877    0.3228661118261758    0.3902928416568580 Se
   0.7002694429851243    0.4807608486682809    0.3902928416568581 Se
   0.8055326008798612    0.6386555855103864    0.3902928416568581 Se
   0.9107957587745977    0.7965503223524915    0.3902928416568581 Se
   0.7529010219324928    0.0597082170893337    0.3902928416568580 Se
   0.8581641798272295    0.2176029539314390    0.3902928416568581 Se
   0.9634273377219661    0.3754976907735442    0.3902928416568580 Se
   0.8966334779562404    0.6553575236707817    0.7999572121708421 Se
   0.6658642471870098    0.5784344467477051    0.7999572121708421 Se
   0.9735565548793174    0.3476652159784742    0.7999572121708421 Se
   0.4350950164177788    0.5015113698246280    0.7999572121708421 Se
   0.7427873241100863    0.2707421390553972    0.7999572121708421 Se
   0.0504796318023943    0.0399729082861664    0.7999572121708421 Se
   0.2043257856485479    0.4245882929015509    0.7999572121708421 Se
   0.5120180933408557    0.1938190621323202    0.7999572121708421 Se
   0.8197104010331632    0.9630498313630894    0.7999572121708421 Se
   0.2812488625716251    0.1168959852092433    0.7999572121708421 Se
   0.5889411702639324    0.8861267544400127    0.7999572121708421 Se
   0.3581719394947018    0.8092036775169357    0.7999572121708421 Se
   0.1274027087254712    0.7322806005938588    0.7999572121708421 Se
   0.7197882584664359    0.7062912379873693    0.7271899584285131 Se
   0.4890190276972055    0.6293681610642925    0.7271899584285132 Se
   0.7967113353895133    0.3985989302950615    0.7271899584285132 Se
   0.2582497969279747    0.5524450841412154    0.7271899584285132 Se
   0.5659421046202823    0.3216758533719846    0.7271899584285132 Se
   0.8736344123125900    0.0909066226027538    0.7271899584285132 Se
   0.0274805661587438    0.4755220072181385    0.7271899584285132 Se
   0.3351728738510515    0.2447527764489077    0.7271899584285132 Se
   0.6428651815433590    0.0139835456796769    0.7271899584285132 Se
   0.1044036430818209    0.1678296995258308    0.7271899584285132 Se
   0.4120959507741285    0.9370604687566000    0.7271899584285132 Se
   0.1813267200048976    0.8601373918335231    0.7271899584285132 Se
   0.9505574892356671    0.7832143149104462    0.7271899584285131 Se
   0.8471184946472438    0.5276593170227939    0.6545040291068935 Se
   0.6163492638780133    0.4507362400997171    0.6545040291068935 Se
   0.9240415715703210    0.2199670093304862    0.6545040291068935 Se
   0.3855800331087821    0.3738131631766400    0.6545040291068935 Se
   0.6932723408010898    0.1430439324074092    0.6545040291068935 Se
   0.0009646484933975    0.9122747016381784    0.6545040291068935 Se
   0.1548108023395515    0.2968900862535631    0.6545040291068935 Se
   0.4625031100318592    0.0661208554843323    0.6545040291068935 Se
   0.7701954177241668    0.8353516247151017    0.6545040291068935 Se
   0.2317338792626285    0.9891977785612553    0.6545040291068935 Se
   0.5394261869549360    0.7584285477920245    0.6545040291068935 Se
   0.3086569561857053    0.6815054708689477    0.6545040291068935 Se
   0.0778877254164746    0.6045823939458708    0.6545040291068935 Se
   0.7187268796896159    0.7122107629975002    0.5991574626168228 Se
   0.4879576489203853    0.6352876860744234    0.5991574626168228 Se
   0.7956499566126934    0.4045184553051925    0.5991574626168228 Se
   0.2571884181511547    0.5583646091513463    0.5991574626168228 Se
   0.5648807258434621    0.3275953783821156    0.5991574626168228 Se
   0.8725730335357699    0.0968261476128848    0.5991574626168228 Se
   0.0264191873819237    0.4814415322282694    0.5991574626168228 Se
   0.3341114950742314    0.2506723014590386    0.5991574626168228 Se
   0.6418038027665391    0.0199030706898078    0.5991574626168228 Se
   0.1033422643050007    0.1737492245359617    0.5991574626168228 Se
   0.4110345719973085    0.9429799937667308    0.5991574626168228 Se
   0.1802653412280777    0.8660569168436540    0.5991574626168228 Se
   0.9494961104588467    0.7891338399205770    0.5991574626168228 Se
   0.8454493454759460    0.5337404549443313    0.5267847356324311 Se
   0.6146801147067157    0.4568173780212543    0.5267847356324311 Se
   0.9223724223990233    0.2260481472520236    0.5267847356324311 Se
   0.3839108839374848    0.3798943010981774    0.5267847356324311 Se
   0.6916031916297923    0.1491250703289467    0.5267847356324311 Se
   0.9992954993221000    0.9183558395597158    0.5267847356324311 Se
   0.1531416531682539    0.3029712241751005    0.5267847356324311 Se
   0.4608339608605617    0.0722019934058697    0.5267847356324311 Se
   0.7685262685528692    0.8414327626366390    0.5267847356324311 Se
   0.2300647300913310    0.9952789164827928    0.5267847356324311 Se
   0.5377570377836383    0.7645096857135620    0.5267847356324311 Se
   0.3069878070144077    0.6875866087904852    0.5267847356324311 Se
   0.0762185762451771    0.6106635318674081    0.5267847356324311 Se
   0.8958942160453685    0.6617871593402549    0.4543065337621886 Se
   0.6651249852761378    0.5848640824171780    0.4543065337621886 Se
   0.9728172929684457    0.3540948516479472    0.4543065337621886 Se
   0.4343557545069074    0.5079410054941010    0.4543065337621886 Se
   0.7420480621992148    0.2771717747248703    0.4543065337621886 Se
   0.0497403698915225    0.0464025439556393    0.4543065337621886 Se
   0.2035865237376763    0.4310179285710242    0.4543065337621886 Se
   0.5112788314299841    0.2002486978017933    0.4543065337621886 Se
   0.8189711391222919    0.9694794670325625    0.4543065337621886 Se
   0.2805096006607534    0.1233256208787163    0.4543065337621886 Se
   0.5882019083530612    0.8925563901094855    0.4543065337621886 Se
   0.3574326775838302    0.8156333131864087    0.4543065337621886 Se
   0.1266634468145997    0.7387102362633317    0.4543065337621886 Se
