Nb62 Bi84 Se250
1.0
  19.2843459667862440    0.0000000000000000    0.0000000000000012
   9.6421729826764473   16.7007335033979309    0.0000000000000012
   0.0000000000000000    0.0000000000000000   49.9893053307188922
Nb Bi Se
62 84 250
direct
   0.0077736074391177    0.0253004111938338    0.3566429020965912 Nb
   0.0400316719552468    0.1865907337744790    0.3566429020965912 Nb
   0.2335800590520210    0.1543326692583500    0.3566429020965912 Nb
   0.4271284461487951    0.1220746047422208    0.3566429020965912 Nb
   0.6206768332455697    0.0898165402260918    0.3566429020965912 Nb
   0.8142252203423437    0.0575584757099627    0.3566429020965913 Nb
   0.0722897364713759    0.3478810563551241    0.3566429020965912 Nb
   0.2658381235681500    0.3156229918389951    0.3566429020965912 Nb
   0.4593865106649242    0.2833649273228661    0.3566429020965912 Nb
   0.6529348977616983    0.2511068628067369    0.3566429020965913 Nb
   0.8464832848584724    0.2188487982906079    0.3566429020965913 Nb
   0.1045478009875047    0.5091713789357692    0.3566429020965912 Nb
   0.2980961880842790    0.4769133144196402    0.3566429020965912 Nb
   0.4916445751810531    0.4446552499035112    0.3566429020965913 Nb
   0.6851929622778274    0.4123971853873821    0.3566429020965913 Nb
   0.8787413493746015    0.3801391208712531    0.3566429020965913 Nb
   0.1368058655036339    0.6704617015164145    0.3566429020965913 Nb
   0.3303542526004082    0.6382036370002856    0.3566429020965913 Nb
   0.5239026396971823    0.6059455724841563    0.3566429020965913 Nb
   0.7174510267939567    0.5736875079680273    0.3566429020965913 Nb
   0.9109994138907307    0.5414294434518983    0.3566429020965913 Nb
   0.1690639300197629    0.8317520240970597    0.3566429020965913 Nb
   0.3626123171165372    0.7994939595809305    0.3566429020965913 Nb
   0.5561607042133112    0.7672358950648016    0.3566429020965913 Nb
   0.7497090913100856    0.7349778305486725    0.3566429020965913 Nb
   0.9432574784068597    0.7027197660325437    0.3566429020965913 Nb
   0.2013219945358918    0.9930423466777045    0.3566429020965912 Nb
   0.3948703816326661    0.9607842821615755    0.3566429020965912 Nb
   0.5884187687294403    0.9285262176454465    0.3566429020965912 Nb
   0.7819671558262146    0.8962681531293175    0.3566429020965913 Nb
   0.9755155429229887    0.8640100886131885    0.3566429020965913 Nb
   0.0076186876346717    0.0258683230522596    0.2336917587878816 Nb
   0.0398767521508007    0.1871586456329048    0.2336917587878816 Nb
   0.2334251392475750    0.1549005811167757    0.2336917587878816 Nb
   0.4269735263443490    0.1226425166006466    0.2336917587878816 Nb
   0.6205219134411234    0.0903844520845177    0.2336917587878816 Nb
   0.8140703005378975    0.0581263875683886    0.2336917587878816 Nb
   0.0721348166669298    0.3484489682135498    0.2336917587878816 Nb
   0.2656832037637039    0.3161909036974209    0.2336917587878816 Nb
   0.4592315908604782    0.2839328391812919    0.2336917587878816 Nb
   0.6527799779572523    0.2516747746651627    0.2336917587878816 Nb
   0.8463283650540265    0.2194167101490336    0.2336917587878816 Nb
   0.1043928811830588    0.5097392907941949    0.2336917587878816 Nb
   0.2979412682798330    0.4774812262780660    0.2336917587878816 Nb
   0.4914896553766073    0.4452231617619370    0.2336917587878816 Nb
   0.6850380424733813    0.4129650972458080    0.2336917587878816 Nb
   0.8785864295701556    0.3807070327296789    0.2336917587878816 Nb
   0.1366509456991878    0.6710296133748402    0.2336917587878816 Nb
   0.3301993327959620    0.6387715488587112    0.2336917587878816 Nb
   0.5237477198927364    0.6065134843425822    0.2336917587878816 Nb
   0.7172961069895107    0.5742554198264531    0.2336917587878816 Nb
   0.9108444940862848    0.5419973553103240    0.2336917587878816 Nb
   0.1689090102153168    0.8323199359554856    0.2336917587878816 Nb
   0.3624573973120910    0.8000618714393564    0.2336917587878816 Nb
   0.5560057844088654    0.7678038069232273    0.2336917587878816 Nb
   0.7495541715056394    0.7355457424070982    0.2336917587878816 Nb
   0.9431025586024139    0.7032876778909694    0.2336917587878816 Nb
   0.2011670747314458    0.9936102585361304    0.2336917587878816 Nb
   0.3947154618282201    0.9613521940200014    0.2336917587878816 Nb
   0.5882638489249944    0.9290941295038724    0.2336917587878816 Nb
   0.7818122360217684    0.8968360649877434    0.2336917587878816 Nb
   0.9753606231185425    0.8645780004716145    0.2336917587878816 Nb
   0.8582610934401814    0.6402484634346315    0.7671208852038272 Bi
   0.6677849029639912    0.5926294158155840    0.7671208852038272 Bi
   0.9058801410592293    0.4021532253393935    0.7671208852038272 Bi
   0.4773087124878007    0.5450103681965364    0.7671208852038272 Bi
   0.7154039505830387    0.3545341777203459    0.7671208852038272 Bi
   0.9534991886782768    0.1640579872441554    0.7671208852038272 Bi
   0.2868325220116102    0.4973913205774886    0.7671208852038272 Bi
   0.5249277601068482    0.3069151301012981    0.7671208852038272 Bi
   0.7630229982020864    0.1164389396251077    0.7671208852038272 Bi
   0.0011182362973244    0.9259627491489173    0.7671208852038272 Bi
   0.0963563315354196    0.4497722729584410    0.7671208852038272 Bi
   0.3344515696306578    0.2592960824822506    0.7671208852038272 Bi
   0.5725468077258957    0.0688198920060601    0.7671208852038272 Bi
   0.8106420458211342    0.8783437015298696    0.7671208852038272 Bi
   0.1439753791544672    0.2116770348632029    0.7671208852038272 Bi
   0.3820706172497053    0.0212008443870124    0.7671208852038272 Bi
   0.6201658553449436    0.8307246539108221    0.7671208852038272 Bi
   0.1915944267735148    0.9735817967679647    0.7671208852038272 Bi
   0.4296896648687529    0.7831056062917744    0.7671208852038272 Bi
   0.2392134743925624    0.7354865586727267    0.7671208852038272 Bi
   0.0487372839163719    0.6878675110536792    0.7671208852038272 Bi
   0.9071089693050988    0.7364121833947086    0.6873709670584138 Bi
   0.7166327788289087    0.6887931357756610    0.6873709670584138 Bi
   0.9547280169241468    0.4983169452994707    0.6873709670584138 Bi
   0.5261565883527182    0.6411740881566136    0.6873709670584138 Bi
   0.7642518264479562    0.4506978976804230    0.6873709670584138 Bi
   0.0023470645431940    0.2602217072042325    0.6873709670584138 Bi
   0.3356803978765276    0.5935550405375657    0.6873709670584138 Bi
   0.5737756359717658    0.4030788500613752    0.6873709670584138 Bi
   0.8118708740670040    0.2126026595851848    0.6873709670584138 Bi
   0.0499661121622417    0.0221264691089943    0.6873709670584138 Bi
   0.1452042074003371    0.5459359929185180    0.6873709670584138 Bi
   0.3832994454955752    0.3554598024423277    0.6873709670584138 Bi
   0.6213946835908133    0.1649836119661372    0.6873709670584138 Bi
   0.8594899216860515    0.9745074214899467    0.6873709670584138 Bi
   0.1928232550193847    0.3078407548232801    0.6873709670584138 Bi
   0.4309184931146228    0.1173645643470896    0.6873709670584138 Bi
   0.6690137312098609    0.9268883738708991    0.6873709670584138 Bi
   0.2404423026384322    0.0697455167280419    0.6873709670584138 Bi
   0.4785375407336704    0.8792693262518516    0.6873709670584138 Bi
   0.2880613502574800    0.8316502786328038    0.6873709670584138 Bi
   0.0975851597812894    0.7840312310137563    0.6873709670584138 Bi
   0.9053278933240049    0.7405045554622306    0.5665155440360311 Bi
   0.7148517028478147    0.6928855078431829    0.5665155440360311 Bi
   0.9529469409430524    0.5024093173669923    0.5665155440360311 Bi
   0.5243755123716242    0.6452664602241353    0.5665155440360311 Bi
   0.7624707504668623    0.4547902697479447    0.5665155440360311 Bi
   0.0005659885620999    0.2643140792717543    0.5665155440360311 Bi
   0.3338993218954335    0.5976474126050875    0.5665155440360311 Bi
   0.5719945599906716    0.4071712221288971    0.5665155440360311 Bi
   0.8100897980859094    0.2166950316527066    0.5665155440360311 Bi
   0.0481850361811477    0.0262188411765161    0.5665155440360312 Bi
   0.1434231314192431    0.5500283649860398    0.5665155440360311 Bi
   0.3815183695144810    0.3595521745098495    0.5665155440360311 Bi
   0.6196136076097192    0.1690759840336590    0.5665155440360311 Bi
   0.8577088457049572    0.9785997935574685    0.5665155440360311 Bi
   0.1910421790382905    0.3119331268908017    0.5665155440360311 Bi
   0.4291374171335287    0.1214569364146113    0.5665155440360311 Bi
   0.6672326552287668    0.9309807459384208    0.5665155440360311 Bi
   0.2386612266573382    0.0738378887955637    0.5665155440360311 Bi
   0.4767564647525762    0.8833616983193734    0.5665155440360311 Bi
   0.2862802742763857    0.8357426507003256    0.5665155440360311 Bi
   0.0958040838001954    0.7881236030812780    0.5665155440360311 Bi
   0.7637261228014660    0.7877930200882258    0.4870641414761426 Bi
   0.5732499323252759    0.7401739724691782    0.4870641414761426 Bi
   0.8113451704205140    0.5496977819929878    0.4870641414761426 Bi
   0.3827737418490854    0.6925549248501307    0.4870641414761425 Bi
   0.6208689799443234    0.5020787343739401    0.4870641414761425 Bi
   0.8589642180395615    0.3116025438977497    0.4870641414761426 Bi
   0.1922975513728948    0.6449358772310829    0.4870641414761425 Bi
   0.4303927894681330    0.4544596867548924    0.4870641414761425 Bi
   0.6684880275633710    0.2639834962787020    0.4870641414761425 Bi
   0.9065832656586092    0.0735073058025114    0.4870641414761425 Bi
   0.0018213608967042    0.5973168296120351    0.4870641414761425 Bi
   0.2399165989919422    0.4068406391358448    0.4870641414761425 Bi
   0.4780118370871803    0.2163644486596543    0.4870641414761425 Bi
   0.7161070751824187    0.0258882581834638    0.4870641414761425 Bi
   0.0494404085157518    0.3592215915167971    0.4870641414761425 Bi
   0.2875356466109900    0.1687454010406066    0.4870641414761425 Bi
   0.5256308847062282    0.9782692105644162    0.4870641414761425 Bi
   0.0970594561347995    0.1211263534215590    0.4870641414761425 Bi
   0.3351546942300375    0.9306501629453685    0.4870641414761425 Bi
   0.1446785037538471    0.8830311153263208    0.4870641414761425 Bi
   0.9542023132776569    0.8354120677072732    0.4870641414761426 Bi
   0.9323177146786873    0.9828825207482565    0.2000427878291580 Se
   0.9645757791948165    0.1441728433289018    0.2000427878291580 Se
   0.1581241662915905    0.1119147788127728    0.2000427878291580 Se
   0.3516725533883646    0.0796567142966436    0.2000427878291580 Se
   0.5452209404851390    0.0473986497805147    0.2000427878291580 Se
   0.7387693275819130    0.0151405852643856    0.2000427878291580 Se
   0.9968338437109453    0.3054631659095470    0.2000427878291580 Se
   0.1903822308077195    0.2732051013934179    0.2000427878291580 Se
   0.3839306179044937    0.2409470368772888    0.2000427878291580 Se
   0.5774790050012679    0.2086889723611597    0.2000427878291580 Se
   0.7710273920980422    0.1764309078450307    0.2000427878291580 Se
   0.0290919082270743    0.4667534884901920    0.2000427878291580 Se
   0.2226402953238484    0.4344954239740629    0.2000427878291580 Se
   0.4161886824206226    0.4022373594579340    0.2000427878291580 Se
   0.6097370695173970    0.3699792949418050    0.2000427878291580 Se
   0.8032854566141712    0.3377212304256759    0.2000427878291580 Se
   0.0613499727432033    0.6280438110708374    0.2000427878291580 Se
   0.2548983598399775    0.5957857465547084    0.2000427878291580 Se
   0.4484467469367520    0.5635276820385792    0.2000427878291580 Se
   0.6419951340335261    0.5312696175224501    0.2000427878291580 Se
   0.8355435211303005    0.4990115530063211    0.2000427878291580 Se
   0.0936080372593324    0.7893341336514824    0.2000427878291580 Se
   0.2871564243561067    0.7570760691353533    0.2000427878291580 Se
   0.4807048114528807    0.7248180046192244    0.2000427878291580 Se
   0.6742531985496552    0.6925599401030953    0.2000427878291580 Se
   0.8678015856464293    0.6603018755869665    0.2000427878291580 Se
   0.1258661017754614    0.9506244562321275    0.2000427878291580 Se
   0.3194144888722356    0.9183663917159983    0.2000427878291580 Se
   0.5129628759690098    0.8861083271998694    0.2000427878291580 Se
   0.7065112630657840    0.8538502626837405    0.2000427878291580 Se
   0.9000596501625584    0.8215921981676113    0.2000427878291580 Se
   0.0507670807508674    0.9070300461306173    0.3229896502366213 Se
   0.0830251452669964    0.0683203687112625    0.3229896502366213 Se
   0.2765735323637706    0.0360623041951335    0.3229896502366213 Se
   0.4701219194605448    0.0038042396790044    0.3229896502366213 Se
   0.6636703065573190    0.9715461751628753    0.3229896502366213 Se
   0.8572186936540932    0.9392881106467464    0.3229896502366213 Se
   0.1152832097831255    0.2296106912919077    0.3229896502366213 Se
   0.3088315968798996    0.1973526267757786    0.3229896502366213 Se
   0.5023799839766739    0.1650945622596496    0.3229896502366213 Se
   0.6959283710734482    0.1328364977435205    0.3229896502366213 Se
   0.8894767581702221    0.1005784332273914    0.3229896502366213 Se
   0.1475412742992544    0.3909010138725528    0.3229896502366213 Se
   0.3410896613960286    0.3586429493564237    0.3229896502366213 Se
   0.5346380484928029    0.3263848848402948    0.3229896502366213 Se
   0.7281864355895772    0.2941268203241657    0.3229896502366213 Se
   0.9217348226863512    0.2618687558080366    0.3229896502366213 Se
   0.1797993388153835    0.5521913364531981    0.3229896502366213 Se
   0.3733477259121578    0.5199332719370690    0.3229896502366213 Se
   0.5668961130089321    0.4876752074209399    0.3229896502366213 Se
   0.7604445001057063    0.4554171429048108    0.3229896502366213 Se
   0.9539928872024803    0.4231590783886817    0.3229896502366214 Se
   0.2120574033315127    0.7134816590338432    0.3229896502366213 Se
   0.4056057904282869    0.6812235945177143    0.3229896502366213 Se
   0.5991541775250609    0.6489655300015853    0.3229896502366213 Se
   0.7927025646218354    0.6167074654854562    0.3229896502366214 Se
   0.9862509517186097    0.5844494009693273    0.3229896502366213 Se
   0.2443154678476416    0.8747719816144883    0.3229896502366213 Se
   0.4378638549444157    0.8425139170983592    0.3229896502366214 Se
   0.6314122420411901    0.8102558525822303    0.3229896502366214 Se
   0.8249606291379642    0.7779977880661011    0.3229896502366214 Se
   0.0185090162347384    0.7457397235499721    0.3229896502366213 Se
   0.9323570735182508    0.9828186537865918    0.2673459347889960 Se
   0.9646151380343799    0.1441089763672371    0.2673459347889959 Se
   0.1581635251311540    0.1118509118511080    0.2673459347889959 Se
   0.3517119122279281    0.0795928473349789    0.2673459347889959 Se
   0.5452602993247024    0.0473347828188500    0.2673459347889960 Se
   0.7388086864214766    0.0150767183027209    0.2673459347889960 Se
   0.9968732025505088    0.3053992989478823    0.2673459347889959 Se
   0.1904215896472831    0.2731412344317532    0.2673459347889959 Se
   0.3839699767440572    0.2408831699156242    0.2673459347889960 Se
   0.5775183638408314    0.2086251053994951    0.2673459347889960 Se
   0.7710667509376056    0.1763670408833660    0.2673459347889960 Se
   0.0291312670666378    0.4666896215285274    0.2673459347889959 Se
   0.2226796541634121    0.4344315570123982    0.2673459347889960 Se
   0.4162280412601863    0.4021734924962693    0.2673459347889960 Se
   0.6097764283569604    0.3699154279801403    0.2673459347889960 Se
   0.8033248154537349    0.3376573634640111    0.2673459347889959 Se
   0.0613893315827668    0.6279799441091727    0.2673459347889960 Se
   0.2549377186795411    0.5957218795930437    0.2673459347889960 Se
   0.4484861057763153    0.5634638150769146    0.2673459347889960 Se
   0.6420344928730896    0.5312057505607853    0.2673459347889959 Se
   0.8355828799698641    0.4989476860446564    0.2673459347889959 Se
   0.0936473960988960    0.7892702666898178    0.2673459347889960 Se
   0.2871957831956702    0.7570122021736886    0.2673459347889960 Se
   0.4807441702924443    0.7247541376575597    0.2673459347889959 Se
   0.6742925573892187    0.6924960731414307    0.2673459347889959 Se
   0.8678409444859927    0.6602380086253017    0.2673459347889959 Se
   0.1259054606150248    0.9505605892704627    0.2673459347889959 Se
   0.3194538477117991    0.9183025247543337    0.2673459347889959 Se
   0.5130022348085733    0.8860444602382048    0.2673459347889959 Se
   0.7065506219053476    0.8537863957220757    0.2673459347889959 Se
   0.9000990090021218    0.8215283312059467    0.2673459347889959 Se
   0.0508137119367838    0.9069695970683065    0.3902928416568580 Se
   0.0830717764529128    0.0682599196489515    0.3902928416568580 Se
   0.2766201635496870    0.0360018551328224    0.3902928416568580 Se
   0.4701685506464611    0.0037437906166934    0.3902928416568580 Se
   0.6637169377432356    0.9714857261005644    0.3902928416568580 Se
   0.8572653248400095    0.9392276615844353    0.3902928416568580 Se
   0.1153298409690418    0.2295502422295967    0.3902928416568580 Se
   0.3088782280658161    0.1972921777134676    0.3902928416568580 Se
   0.5024266151625905    0.1650341131973385    0.3902928416568580 Se
   0.6959750022593645    0.1327760486812094    0.3902928416568580 Se
   0.8895233893561384    0.1005179841650803    0.3902928416568580 Se
   0.1475879054851709    0.3908405648102418    0.3902928416568580 Se
   0.3411362925819451    0.3585825002941128    0.3902928416568580 Se
   0.5346846796787192    0.3263244357779837    0.3902928416568580 Se
   0.7282330667754935    0.2940663712618545    0.3902928416568580 Se
   0.9217814538722674    0.2618083067457256    0.3902928416568580 Se
   0.1798459700012999    0.5521308873908871    0.3902928416568580 Se
   0.3733943570980741    0.5198728228747580    0.3902928416568580 Se
   0.5669427441948484    0.4876147583586288    0.3902928416568580 Se
   0.7604911312916224    0.4553566938424998    0.3902928416568580 Se
   0.9540395183883968    0.4230986293263708    0.3902928416568580 Se
   0.2121040345174290    0.7134212099715321    0.3902928416568580 Se
   0.4056524216142032    0.6811631454554030    0.3902928416568580 Se
   0.5992008087109773    0.6489050809392740    0.3902928416568580 Se
   0.7927491958077517    0.6166470164231450    0.3902928416568580 Se
   0.9862975829045257    0.5843889519070161    0.3902928416568580 Se
   0.2443620990335579    0.8747115325521770    0.3902928416568580 Se
   0.4379104861303323    0.8424534680360480    0.3902928416568580 Se
   0.6314588732271063    0.8101954035199191    0.3902928416568580 Se
   0.8250072603238805    0.7779373390037901    0.3902928416568580 Se
   0.0185556474206546    0.7456792744876612    0.3902928416568580 Se
   0.9051578941190007    0.7357532581158193    0.7999572121708419 Se
   0.7146817036428106    0.6881342104967718    0.7999572121708419 Se
   0.9527769417380491    0.4976580200205813    0.7999572121708419 Se
   0.5242055131666200    0.6405151628777240    0.7999572121708419 Se
   0.7623007512618583    0.4500389724015336    0.7999572121708419 Se
   0.0003959893570960    0.2595627819253431    0.7999572121708420 Se
   0.3337293226904295    0.5928961152586764    0.7999572121708419 Se
   0.5718245607856676    0.4024199247824858    0.7999572121708419 Se
   0.8099197988809058    0.2119437343062955    0.7999572121708419 Se
   0.0480150369761439    0.0214675438301050    0.7999572121708420 Se
   0.1432531322142389    0.5452770676396288    0.7999572121708419 Se
   0.3813483703094772    0.3548008771634383    0.7999572121708419 Se
   0.6194436084047150    0.1643246866872479    0.7999572121708419 Se
   0.8575388464999536    0.9738484962110574    0.7999572121708419 Se
   0.1908721798332865    0.3071818295443906    0.7999572121708419 Se
   0.4289674179285247    0.1167056390682002    0.7999572121708419 Se
   0.6670626560237627    0.9262294485920097    0.7999572121708419 Se
   0.2384912274523343    0.0690865914491526    0.7999572121708420 Se
   0.4765864655475724    0.8786104009729621    0.7999572121708419 Se
   0.2861102750713819    0.8309913533539146    0.7999572121708419 Se
   0.0956340845951914    0.7833723057348668    0.7999572121708419 Se
   0.7644228933089972    0.7829810985232101    0.7271899584285131 Se
   0.5739467028328067    0.7353620509041625    0.7271899584285131 Se
   0.8120419409280450    0.5448858604279719    0.7271899584285131 Se
   0.3834705123566161    0.6877430032851147    0.7271899584285131 Se
   0.6215657504518540    0.4972668128089244    0.7271899584285131 Se
   0.8596609885470923    0.3067906223327339    0.7271899584285131 Se
   0.1929943218804255    0.6401239556660671    0.7271899584285132 Se
   0.4310895599756638    0.4496477651898765    0.7271899584285132 Se
   0.6691847980709018    0.2591715747136861    0.7271899584285132 Se
   0.9072800361661401    0.0686953842374957    0.7271899584285132 Se
   0.0025181314042350    0.5925049080470195    0.7271899584285132 Se
   0.2406133694994732    0.4020287175708289    0.7271899584285132 Se
   0.4787086075947110    0.2115525270946384    0.7271899584285132 Se
   0.7168038456899495    0.0210763366184480    0.7271899584285132 Se
   0.0501371790232826    0.3544096699517814    0.7271899584285132 Se
   0.2882324171185207    0.1639334794755908    0.7271899584285132 Se
   0.5263276552137588    0.9734572889994004    0.7271899584285132 Se
   0.0977562266423302    0.1163144318565432    0.7271899584285132 Se
   0.3358514647375683    0.9258382413803528    0.7271899584285132 Se
   0.1453752742613779    0.8782191937613051    0.7271899584285131 Se
   0.9548990837851876    0.8306001461422575    0.7271899584285131 Se
   0.8589934692189566    0.6408172427320665    0.6545040291068936 Se
   0.6685172787427666    0.5931981951130190    0.6545040291068936 Se
   0.9066125168380045    0.4027220046368284    0.6545040291068936 Se
   0.4780410882665760    0.5455791474939712    0.6545040291068936 Se
   0.7161363263618138    0.3551029570177807    0.6545040291068936 Se
   0.9542315644570522    0.1646267665415904    0.6545040291068936 Se
   0.2875648977903851    0.4979600998749234    0.6545040291068936 Se
   0.5256601358856233    0.3074839093987331    0.6545040291068936 Se
   0.7637553739808614    0.1170077189225426    0.6545040291068936 Se
   0.0018506120760995    0.9265315284463521    0.6545040291068935 Se
   0.0970887073141947    0.4503410522558759    0.6545040291068935 Se
   0.3351839454094329    0.2598648617796854    0.6545040291068935 Se
   0.5732791835046708    0.0693886713034950    0.6545040291068935 Se
   0.8113744215999095    0.8789124808273046    0.6545040291068936 Se
   0.1447077549332424    0.2122458141606378    0.6545040291068935 Se
   0.3828029930284803    0.0217696236844473    0.6545040291068935 Se
   0.6208982311237186    0.8312934332082569    0.6545040291068936 Se
   0.1923268025522899    0.9741505760653997    0.6545040291068935 Se
   0.4304220406475280    0.7836743855892092    0.6545040291068936 Se
   0.2399458501713375    0.7360553379701618    0.6545040291068936 Se
   0.0494696596951471    0.6884362903511139    0.6545040291068935 Se
   0.7638455640615774    0.7875417546631583    0.5991574626168228 Se
   0.5733693735853871    0.7399227070441107    0.5991574626168229 Se
   0.8114646116806253    0.5494465165679202    0.5991574626168229 Se
   0.3828931831091963    0.6923036594250630    0.5991574626168229 Se
   0.6209884212044343    0.5018274689488726    0.5991574626168229 Se
   0.8590836592996726    0.3113512784726821    0.5991574626168229 Se
   0.1924169926330059    0.6446846118060153    0.5991574626168229 Se
   0.4305122307282440    0.4542084213298249    0.5991574626168229 Se
   0.6686074688234820    0.2637322308536345    0.5991574626168229 Se
   0.9067027069187203    0.0732560403774440    0.5991574626168229 Se
   0.0019408021568155    0.5970655641869677    0.5991574626168229 Se
   0.2400360402520536    0.4065893737107773    0.5991574626168229 Se
   0.4781312783472917    0.2161131832345868    0.5991574626168229 Se
   0.7162265164425299    0.0256369927583963    0.5991574626168229 Se
   0.0495598497758630    0.3589703260917296    0.5991574626168229 Se
   0.2876550878711012    0.1684941356155391    0.5991574626168229 Se
   0.5257503259663395    0.9780179451393487    0.5991574626168229 Se
   0.0971788973949107    0.1208750879964915    0.5991574626168228 Se
   0.3352741354901489    0.9303988975203010    0.5991574626168228 Se
   0.1447979450139583    0.8827798499012534    0.5991574626168229 Se
   0.9543217545377678    0.8351608022822058    0.5991574626168228 Se
   0.8579318312194082    0.6455299739661569    0.5267847356324311 Se
   0.6674556407432175    0.5979109263471092    0.5267847356324311 Se
   0.9055508788384559    0.4074347358709187    0.5267847356324311 Se
   0.4769794502670271    0.5502918787280614    0.5267847356324311 Se
   0.7150746883622653    0.3598156882518710    0.5267847356324311 Se
   0.9531699264575034    0.1693394977756806    0.5267847356324311 Se
   0.2865032597908367    0.5026728311090137    0.5267847356324311 Se
   0.5245984978860748    0.3121966406328234    0.5267847356324311 Se
   0.7626937359813127    0.1217204501566329    0.5267847356324311 Se
   0.0007889740765508    0.9312442596804423    0.5267847356324311 Se
   0.0960270693146461    0.4550537834899662    0.5267847356324311 Se
   0.3341223074098843    0.2645775930137757    0.5267847356324311 Se
   0.5722175455051224    0.0741014025375852    0.5267847356324311 Se
   0.8103127836003606    0.8836252120613948    0.5267847356324312 Se
   0.1436461169336938    0.2169585453947281    0.5267847356324311 Se
   0.3817413550289319    0.0264823549185376    0.5267847356324311 Se
   0.6198365931241701    0.8360061644423471    0.5267847356324311 Se
   0.1912651645527414    0.9788633072994900    0.5267847356324311 Se
   0.4293604026479795    0.7883871168232995    0.5267847356324311 Se
   0.2388842121717890    0.7407680692042519    0.5267847356324311 Se
   0.0484080216955985    0.6931490215852042    0.5267847356324311 Se
   0.9048656171277939    0.7406872310978402    0.4543065337621886 Se
   0.7143894266516040    0.6930681834787927    0.4543065337621886 Se
   0.9524846647468419    0.5025919930026024    0.4543065337621886 Se
   0.5239132361754132    0.6454491358597449    0.4543065337621886 Se
   0.7620084742706511    0.4549729453835545    0.4543065337621886 Se
   0.0001037123658890    0.2644967549073641    0.4543065337621886 Se
   0.3334370456992227    0.5978300882406973    0.4543065337621886 Se
   0.5715322837944607    0.4073538977645069    0.4543065337621886 Se
   0.8096275218896989    0.2168777072883164    0.4543065337621886 Se
   0.0477227599849369    0.0264015168121259    0.4543065337621886 Se
   0.1429608552230321    0.5502110406216497    0.4543065337621886 Se
   0.3810560933182703    0.3597348501454593    0.4543065337621886 Se
   0.6191513314135083    0.1692586596692688    0.4543065337621886 Se
   0.8572465695087466    0.9787824691930783    0.4543065337621886 Se
   0.1905799028420797    0.3121158025264116    0.4543065337621886 Se
   0.4286751409373180    0.1216396120502212    0.4543065337621886 Se
   0.6667703790325561    0.9311634215740306    0.4543065337621886 Se
   0.2381989504611274    0.0740205644311735    0.4543065337621886 Se
   0.4762941885563657    0.8835443739549830    0.4543065337621886 Se
   0.2858179980801748    0.8359253263359356    0.4543065337621886 Se
   0.0953418076039845    0.7883062787168877    0.4543065337621886 Se
