Nb54 Bi76 Se222
1.0
  17.9972417086755208    0.0000000000000000    0.0000000000000011
   8.9986208543377622   15.5860685187594328    0.0000000000000011
   0.0000000000000000    0.0000000000000000   49.9893053307188922
Nb Bi Se
54 76 222
direct
   0.1369588377134100    0.5148127603707582    0.3566429020965914 Nb
   0.2480699488245211    0.6259238714818690    0.3566429020965914 Nb
   0.3591810599356323    0.7370349825929803    0.3566429020965914 Nb
   0.1369588377134100    0.1814794270374248    0.3566429020965914 Nb
   0.2480699488245210    0.2925905381485359    0.3566429020965914 Nb
   0.3591810599356322    0.4037016492596470    0.3566429020965913 Nb
   0.4702921710467432    0.5148127603707582    0.3566429020965914 Nb
   0.5814032821578545    0.6259238714818690    0.3566429020965914 Nb
   0.6925143932689656    0.7370349825929803    0.3566429020965914 Nb
   0.1369588377134101    0.8481460937040913    0.3566429020965914 Nb
   0.2480699488245212    0.9592572048152026    0.3566429020965914 Nb
   0.3591810599356322    0.0703683159263137    0.3566429020965914 Nb
   0.4702921710467433    0.1814794270374248    0.3566429020965914 Nb
   0.5814032821578545    0.2925905381485359    0.3566429020965914 Nb
   0.6925143932689659    0.4037016492596470    0.3566429020965914 Nb
   0.8036255043800767    0.5148127603707582    0.3566429020965914 Nb
   0.9147366154911878    0.6259238714818690    0.3566429020965914 Nb
   0.0258477266022988    0.7370349825929803    0.3566429020965913 Nb
   0.4702921710467433    0.8481460937040913    0.3566429020965914 Nb
   0.5814032821578546    0.9592572048152026    0.3566429020965914 Nb
   0.6925143932689655    0.0703683159263137    0.3566429020965913 Nb
   0.8036255043800766    0.1814794270374248    0.3566429020965914 Nb
   0.9147366154911879    0.2925905381485359    0.3566429020965914 Nb
   0.0258477266022989    0.4037016492596470    0.3566429020965914 Nb
   0.8036255043800766    0.8481460937040913    0.3566429020965914 Nb
   0.9147366154911879    0.9592572048152026    0.3566429020965914 Nb
   0.0258477266022988    0.0703683159263137    0.3566429020965914 Nb
   0.1375324590258059    0.5143021979011175    0.2336917587878817 Nb
   0.2486435701369169    0.6254133090122285    0.2336917587878817 Nb
   0.3597546812480280    0.7365244201233397    0.2336917587878817 Nb
   0.1375324590258057    0.1809688645677842    0.2336917587878817 Nb
   0.2486435701369169    0.2920799756788953    0.2336917587878817 Nb
   0.3597546812480280    0.4031910867900065    0.2336917587878817 Nb
   0.4708657923591391    0.5143021979011175    0.2336917587878817 Nb
   0.5819769034702501    0.6254133090122285    0.2336917587878817 Nb
   0.6930880145813614    0.7365244201233397    0.2336917587878817 Nb
   0.1375324590258057    0.8476355312344509    0.2336917587878817 Nb
   0.2486435701369168    0.9587466423455621    0.2336917587878817 Nb
   0.3597546812480280    0.0698577534566731    0.2336917587878817 Nb
   0.4708657923591392    0.1809688645677842    0.2336917587878817 Nb
   0.5819769034702501    0.2920799756788953    0.2336917587878817 Nb
   0.6930880145813613    0.4031910867900065    0.2336917587878817 Nb
   0.8041991256924726    0.5143021979011175    0.2336917587878817 Nb
   0.9153102368035836    0.6254133090122285    0.2336917587878817 Nb
   0.0264213479146945    0.7365244201233397    0.2336917587878817 Nb
   0.4708657923591392    0.8476355312344509    0.2336917587878817 Nb
   0.5819769034702501    0.9587466423455621    0.2336917587878817 Nb
   0.6930880145813614    0.0698577534566731    0.2336917587878817 Nb
   0.8041991256924724    0.1809688645677842    0.2336917587878817 Nb
   0.9153102368035838    0.2920799756788953    0.2336917587878817 Nb
   0.0264213479146945    0.4031910867900065    0.2336917587878817 Nb
   0.8041991256924723    0.8476355312344509    0.2336917587878818 Nb
   0.9153102368035840    0.9587466423455621    0.2336917587878817 Nb
   0.0264213479146948    0.0698577534566731    0.2336917587878817 Nb
   0.6862029886655435    0.7228809214226973    0.7671208852038272 Bi
   0.5809398307708066    0.9860388161595395    0.7671208852038272 Bi
   0.6335714097181750    0.3544598687911184    0.7671208852038272 Bi
   0.5283082518234383    0.6176177635279604    0.7671208852038272 Bi
   0.4230450939287013    0.8807756582648025    0.7671208852038272 Bi
   0.4756766728760696    0.2491967108963815    0.7671208852038272 Bi
   0.3704135149813330    0.5123546056332235    0.7671208852038272 Bi
   0.2651503570865961    0.7755125003700656    0.7671208852038272 Bi
   0.1598871991918592    0.0386703951069078    0.7671208852038272 Bi
   0.3177819360339644    0.1439335530016448    0.7671208852038272 Bi
   0.2125187781392275    0.4070914477384869    0.7671208852038272 Bi
   0.1072556202444906    0.6702493424753289    0.7671208852038272 Bi
   0.0019924623497538    0.9334072372121711    0.7671208852038272 Bi
   0.0546240412971222    0.3018282898437500    0.7671208852038272 Bi
   0.9493608834023856    0.5649861845805920    0.7671208852038272 Bi
   0.8440977255076487    0.8281440793174343    0.7671208852038272 Bi
   0.8967293044550169    0.1965651319490131    0.7671208852038272 Bi
   0.7914661465602801    0.4597230266858552    0.7671208852038272 Bi
   0.7388345676129117    0.0913019740542763    0.7671208852038272 Bi
   0.8283211106513826    0.7056906680881265    0.6873709670584139 Bi
   0.7230579527566460    0.9688485628249687    0.6873709670584141 Bi
   0.7756895317040144    0.3372696154565477    0.6873709670584141 Bi
   0.6704263738092775    0.6004275101933897    0.6873709670584141 Bi
   0.5651632159145407    0.8635854049302318    0.6873709670584141 Bi
   0.6177947948619090    0.2320064575618108    0.6873709670584141 Bi
   0.5125316369671723    0.4951643522986527    0.6873709670584141 Bi
   0.4072684790724353    0.7583222470354948    0.6873709670584141 Bi
   0.3020053211776985    0.0214801417723371    0.6873709670584141 Bi
   0.4599000580198038    0.1267432996670741    0.6873709670584141 Bi
   0.3546369001250669    0.3899011944039162    0.6873709670584141 Bi
   0.2493737422303300    0.6530590891407583    0.6873709670584141 Bi
   0.1441105843355932    0.9162169838776002    0.6873709670584141 Bi
   0.1967421632829617    0.2846380365091793    0.6873709670584141 Bi
   0.0914790053882249    0.5477959312460213    0.6873709670584141 Bi
   0.9862158474934880    0.8109538259828635    0.6873709670584141 Bi
   0.0388474264408563    0.1793748786144423    0.6873709670584141 Bi
   0.9335842685461196    0.4425327733512844    0.6873709670584141 Bi
   0.8809526895987512    0.0741117207197056    0.6873709670584141 Bi
   0.8323376263220176    0.7023181571181559    0.5665155440360312 Bi
   0.7270744684272807    0.9654760518549982    0.5665155440360312 Bi
   0.7797060473746491    0.3338971044865772    0.5665155440360312 Bi
   0.6744428894799123    0.5970549992234192    0.5665155440360312 Bi
   0.5691797315851755    0.8602128939602611    0.5665155440360312 Bi
   0.6218113105325439    0.2286339465918401    0.5665155440360312 Bi
   0.5165481526378071    0.4917918413286823    0.5665155440360312 Bi
   0.4112849947430701    0.7549497360655244    0.5665155440360312 Bi
   0.3060218368483334    0.0181076308023666    0.5665155440360311 Bi
   0.4639165736904386    0.1233707886971035    0.5665155440360311 Bi
   0.3586534157957016    0.3865286834339456    0.5665155440360312 Bi
   0.2533902579009649    0.6496865781707875    0.5665155440360312 Bi
   0.1481271000062279    0.9128444729076294    0.5665155440360312 Bi
   0.2007586789535963    0.2812655255392087    0.5665155440360311 Bi
   0.0954955210588595    0.5444234202760508    0.5665155440360311 Bi
   0.9902323631641227    0.8075813150128927    0.5665155440360312 Bi
   0.0428639421114911    0.1760023676444718    0.5665155440360311 Bi
   0.9376007842167542    0.4391602623813138    0.5665155440360312 Bi
   0.8849692052693859    0.0707392097497350    0.5665155440360312 Bi
   0.8150543095416233    0.5805440695890530    0.4870641414761427 Bi
   0.7097911516468863    0.8437019643258951    0.4870641414761427 Bi
   0.7624227305942547    0.2121230169574743    0.4870641414761427 Bi
   0.6571595726995180    0.4752809116943162    0.4870641414761427 Bi
   0.5518964148047810    0.7384388064311584    0.4870641414761427 Bi
   0.6045279937521492    0.1068598590627373    0.4870641414761427 Bi
   0.4992648358574124    0.3700177537995793    0.4870641414761427 Bi
   0.3940016779626755    0.6331756485364214    0.4870641414761427 Bi
   0.2887385200679390    0.8963335432732635    0.4870641414761427 Bi
   0.4466332569100440    0.0015967011680005    0.4870641414761427 Bi
   0.3413700990153072    0.2647545959048425    0.4870641414761427 Bi
   0.2361069411205703    0.5279124906416847    0.4870641414761427 Bi
   0.1308437832258335    0.7910703853785266    0.4870641414761427 Bi
   0.1834753621732019    0.1594914380101057    0.4870641414761427 Bi
   0.0782122042784651    0.4226493327469478    0.4870641414761427 Bi
   0.9729490463837284    0.6858072274837899    0.4870641414761427 Bi
   0.0255806253310966    0.0542282801153689    0.4870641414761427 Bi
   0.9203174674363600    0.3173861748522110    0.4870641414761427 Bi
   0.8676858884889911    0.9489651222206320    0.4870641414761427 Bi
   0.0264268327995920    0.5142685006015711    0.2000427878291581 Se
   0.1375379439107031    0.6253796117126822    0.2000427878291581 Se
   0.2486490550218141    0.7364907228237936    0.2000427878291581 Se
   0.0264268327995920    0.1809351672682379    0.2000427878291581 Se
   0.1375379439107031    0.2920462783793490    0.2000427878291581 Se
   0.2486490550218143    0.4031573894904601    0.2000427878291581 Se
   0.3597601661329253    0.5142685006015711    0.2000427878291581 Se
   0.4708712772440363    0.6253796117126822    0.2000427878291581 Se
   0.5819823883551477    0.7364907228237936    0.2000427878291580 Se
   0.0264268327995920    0.8476018339349045    0.2000427878291581 Se
   0.1375379439107031    0.9587129450460157    0.2000427878291581 Se
   0.2486490550218142    0.0698240561571268    0.2000427878291581 Se
   0.3597601661329253    0.1809351672682379    0.2000427878291581 Se
   0.4708712772440364    0.2920462783793490    0.2000427878291581 Se
   0.5819823883551477    0.4031573894904601    0.2000427878291581 Se
   0.6930934994662588    0.5142685006015711    0.2000427878291581 Se
   0.8042046105773697    0.6253796117126822    0.2000427878291580 Se
   0.9153157216884809    0.7364907228237936    0.2000427878291580 Se
   0.3597601661329253    0.8476018339349045    0.2000427878291581 Se
   0.4708712772440364    0.9587129450460157    0.2000427878291581 Se
   0.5819823883551476    0.0698240561571268    0.2000427878291581 Se
   0.6930934994662585    0.1809351672682379    0.2000427878291581 Se
   0.8042046105773698    0.2920462783793490    0.2000427878291581 Se
   0.9153157216884809    0.4031573894904601    0.2000427878291580 Se
   0.6930934994662585    0.8476018339349045    0.2000427878291580 Se
   0.8042046105773698    0.9587129450460157    0.2000427878291581 Se
   0.9153157216884810    0.0698240561571268    0.2000427878291581 Se
   0.0258455374341730    0.6259090324473707    0.3229896502366215 Se
   0.1369566485452841    0.7370201435584816    0.3229896502366215 Se
   0.2480677596563952    0.8481312546695929    0.3229896502366214 Se
   0.0258455374341731    0.2925756991140373    0.3229896502366214 Se
   0.1369566485452841    0.4036868102251486    0.3229896502366214 Se
   0.2480677596563953    0.5147979213362596    0.3229896502366215 Se
   0.3591788707675063    0.6259090324473707    0.3229896502366215 Se
   0.4702899818786174    0.7370201435584816    0.3229896502366214 Se
   0.5814010929897285    0.8481312546695929    0.3229896502366214 Se
   0.0258455374341731    0.9592423657807041    0.3229896502366214 Se
   0.1369566485452841    0.0703534768918151    0.3229896502366214 Se
   0.2480677596563953    0.1814645880029262    0.3229896502366214 Se
   0.3591788707675063    0.2925756991140373    0.3229896502366215 Se
   0.4702899818786174    0.4036868102251486    0.3229896502366215 Se
   0.5814010929897286    0.5147979213362596    0.3229896502366214 Se
   0.6925122041008399    0.6259090324473707    0.3229896502366214 Se
   0.8036233152119507    0.7370201435584816    0.3229896502366214 Se
   0.9147344263230620    0.8481312546695929    0.3229896502366214 Se
   0.3591788707675063    0.9592423657807041    0.3229896502366214 Se
   0.4702899818786174    0.0703534768918151    0.3229896502366214 Se
   0.5814010929897286    0.1814645880029262    0.3229896502366215 Se
   0.6925122041008398    0.2925756991140373    0.3229896502366215 Se
   0.8036233152119507    0.4036868102251486    0.3229896502366214 Se
   0.9147344263230620    0.5147979213362596    0.3229896502366214 Se
   0.6925122041008397    0.9592423657807041    0.3229896502366215 Se
   0.8036233152119509    0.0703534768918151    0.3229896502366215 Se
   0.9147344263230618    0.1814645880029262    0.3229896502366214 Se
   0.0263793856105511    0.5143356677226721    0.2673459347889960 Se
   0.1374904967216624    0.6254467788337830    0.2673459347889960 Se
   0.2486016078327734    0.7365578899448942    0.2673459347889960 Se
   0.0263793856105512    0.1810023343893387    0.2673459347889960 Se
   0.1374904967216623    0.2921134455004498    0.2673459347889960 Se
   0.2486016078327735    0.4032245566115609    0.2673459347889960 Se
   0.3597127189438845    0.5143356677226721    0.2673459347889960 Se
   0.4708238300549955    0.6254467788337830    0.2673459347889960 Se
   0.5819349411661068    0.7365578899448942    0.2673459347889960 Se
   0.0263793856105513    0.8476690010560053    0.2673459347889960 Se
   0.1374904967216623    0.9587801121671164    0.2673459347889960 Se
   0.2486016078327734    0.0698912232782276    0.2673459347889960 Se
   0.3597127189438847    0.1810023343893387    0.2673459347889960 Se
   0.4708238300549956    0.2921134455004498    0.2673459347889960 Se
   0.5819349411661069    0.4032245566115609    0.2673459347889960 Se
   0.6930460522772178    0.5143356677226721    0.2673459347889960 Se
   0.8041571633883290    0.6254467788337830    0.2673459347889960 Se
   0.9152682744994401    0.7365578899448942    0.2673459347889960 Se
   0.3597127189438846    0.8476690010560053    0.2673459347889960 Se
   0.4708238300549957    0.9587801121671164    0.2673459347889960 Se
   0.5819349411661068    0.0698912232782276    0.2673459347889960 Se
   0.6930460522772178    0.1810023343893387    0.2673459347889960 Se
   0.8041571633883290    0.2921134455004498    0.2673459347889960 Se
   0.9152682744994401    0.4032245566115609    0.2673459347889960 Se
   0.6930460522772178    0.8476690010560053    0.2673459347889960 Se
   0.8041571633883291    0.9587801121671164    0.2673459347889960 Se
   0.9152682744994401    0.0698912232782276    0.2673459347889960 Se
   0.0258079239470611    0.6259767733562421    0.3902928416568581 Se
   0.1369190350581723    0.7370878844673532    0.3902928416568582 Se
   0.2480301461692833    0.8481989955784643    0.3902928416568582 Se
   0.0258079239470611    0.2926434400229088    0.3902928416568581 Se
   0.1369190350581722    0.4037545511340199    0.3902928416568581 Se
   0.2480301461692834    0.5148656622451311    0.3902928416568581 Se
   0.3591412572803944    0.6259767733562421    0.3902928416568582 Se
   0.4702523683915055    0.7370878844673532    0.3902928416568582 Se
   0.5813634795026166    0.8481989955784643    0.3902928416568582 Se
   0.0258079239470612    0.9593101066895755    0.3902928416568581 Se
   0.1369190350581723    0.0704212178006866    0.3902928416568581 Se
   0.2480301461692833    0.1815323289117977    0.3902928416568581 Se
   0.3591412572803945    0.2926434400229088    0.3902928416568581 Se
   0.4702523683915057    0.4037545511340199    0.3902928416568582 Se
   0.5813634795026167    0.5148656622451311    0.3902928416568582 Se
   0.6924745906137277    0.6259767733562421    0.3902928416568582 Se
   0.8035857017248387    0.7370878844673532    0.3902928416568582 Se
   0.9146968128359498    0.8481989955784643    0.3902928416568581 Se
   0.3591412572803945    0.9593101066895755    0.3902928416568581 Se
   0.4702523683915057    0.0704212178006866    0.3902928416568581 Se
   0.5813634795026166    0.1815323289117977    0.3902928416568581 Se
   0.6924745906137277    0.2926434400229088    0.3902928416568582 Se
   0.8035857017248389    0.4037545511340199    0.3902928416568582 Se
   0.9146968128359499    0.5148656622451311    0.3902928416568582 Se
   0.6924745906137277    0.9593101066895755    0.3902928416568581 Se
   0.8035857017248390    0.0704212178006866    0.3902928416568582 Se
   0.9146968128359499    0.1815323289117977    0.3902928416568582 Se
   0.8264965825842547    0.7047025246865276    0.7999572121708419 Se
   0.7212334246895178    0.9678604194233696    0.7999572121708419 Se
   0.7738650036368863    0.3362814720549487    0.7999572121708419 Se
   0.6686018457421494    0.5994393667917908    0.7999572121708419 Se
   0.5633386878474127    0.8625972615286327    0.7999572121708419 Se
   0.6159702667947807    0.2310183141602118    0.7999572121708419 Se
   0.5107071089000440    0.4941762088970539    0.7999572121708419 Se
   0.4054439510053073    0.7573341036338960    0.7999572121708419 Se
   0.3001807931105704    0.0204919983707382    0.7999572121708420 Se
   0.4580755299526755    0.1257551562654750    0.7999572121708419 Se
   0.3528123720579385    0.3889130510023171    0.7999572121708419 Se
   0.2475492141632018    0.6520709457391591    0.7999572121708419 Se
   0.1422860562684651    0.9152288404760013    0.7999572121708419 Se
   0.1949176352158334    0.2836498931075802    0.7999572121708419 Se
   0.0896544773210967    0.5468077878444223    0.7999572121708419 Se
   0.9843913194263597    0.8099656825812643    0.7999572121708419 Se
   0.0370228983737282    0.1783867352128434    0.7999572121708420 Se
   0.9317597404789912    0.4415446299496856    0.7999572121708419 Se
   0.8791281615316229    0.0731235773181066    0.7999572121708419 Se
   0.8095960731774099    0.5835533976021086    0.7271899584285133 Se
   0.7043329152826729    0.8467112923389507    0.7271899584285133 Se
   0.7569644942300413    0.2151323449705299    0.7271899584285133 Se
   0.6517013363353044    0.4782902397073718    0.7271899584285133 Se
   0.5464381784405676    0.7414481344442139    0.7271899584285133 Se
   0.5990697573879357    0.1098691870757930    0.7271899584285133 Se
   0.4938065994931991    0.3730270818126350    0.7271899584285133 Se
   0.3885434415984622    0.6361849765494770    0.7271899584285133 Se
   0.2832802837037254    0.8993428712863192    0.7271899584285133 Se
   0.4411750205458306    0.0046060291810562    0.7271899584285133 Se
   0.3359118626510936    0.2677639239178983    0.7271899584285133 Se
   0.2306487047563569    0.5309218186547403    0.7271899584285133 Se
   0.1253855468616200    0.7940797133915823    0.7271899584285133 Se
   0.1780171258089884    0.1625007660231614    0.7271899584285133 Se
   0.0727539679142517    0.4256586607600035    0.7271899584285133 Se
   0.9674908100195146    0.6888165554968455    0.7271899584285133 Se
   0.0201223889668831    0.0572376081284246    0.7271899584285133 Se
   0.9148592310721464    0.3203955028652667    0.7271899584285133 Se
   0.8622276521247779    0.9519744502336878    0.7271899584285133 Se
   0.6872769719091621    0.7230826631147882    0.6545040291068938 Se
   0.5820138140144253    0.9862405578516305    0.6545040291068936 Se
   0.6346453929617938    0.3546616104832093    0.6545040291068938 Se
   0.5293822350670569    0.6178195052200514    0.6545040291068938 Se
   0.4241190771723201    0.8809773999568936    0.6545040291068938 Se
   0.4767506561196882    0.2493984525884725    0.6545040291068936 Se
   0.3714874982249515    0.5125563473253145    0.6545040291068938 Se
   0.2662243403302147    0.7757142420621566    0.6545040291068938 Se
   0.1609611824354779    0.0388721367989989    0.6545040291068936 Se
   0.3188559192775829    0.1441352946937357    0.6545040291068936 Se
   0.2135927613828462    0.4072931894305778    0.6545040291068936 Se
   0.1083296034881094    0.6704510841674198    0.6545040291068938 Se
   0.0030664455933723    0.9336089789042621    0.6545040291068936 Se
   0.0556980245407409    0.3020300315358410    0.6545040291068936 Se
   0.9504348666460040    0.5651879262726830    0.6545040291068938 Se
   0.8451717087512670    0.8283458210095250    0.6545040291068938 Se
   0.8978032876986356    0.1967668736411041    0.6545040291068938 Se
   0.7925401298038989    0.4599247683779462    0.6545040291068938 Se
   0.7399085508565302    0.0915037157463673    0.6545040291068938 Se
   0.8148130099534421    0.5807580375170595    0.5991574626168230 Se
   0.7095498520587054    0.8439159322539015    0.5991574626168230 Se
   0.7621814310060736    0.2123369848854805    0.5991574626168230 Se
   0.6569182731113369    0.4754948796223225    0.5991574626168230 Se
   0.5516551152166000    0.7386527743591645    0.5991574626168230 Se
   0.6042866941639683    0.1070738269907436    0.5991574626168230 Se
   0.4990235362692314    0.3702317217275857    0.5991574626168230 Se
   0.3937603783744947    0.6333896164644277    0.5991574626168230 Se
   0.2884972204797578    0.8965475112012699    0.5991574626168230 Se
   0.4463919573218629    0.0018106690960069    0.5991574626168230 Se
   0.3411287994271260    0.2649685638328489    0.5991574626168230 Se
   0.2358656415323892    0.5281264585696910    0.5991574626168230 Se
   0.1306024836376523    0.7912843533065330    0.5991574626168230 Se
   0.1832340625850208    0.1597054059381121    0.5991574626168230 Se
   0.0779709046902840    0.4228633006749541    0.5991574626168230 Se
   0.9727077467955472    0.6860211954117963    0.5991574626168230 Se
   0.0253393257429155    0.0544422480433753    0.5991574626168229 Se
   0.9200761678481787    0.3176001427802172    0.5991574626168230 Se
   0.8674445889008102    0.9491790901486384    0.5991574626168230 Se
   0.6924231002454034    0.7198758943603125    0.5267847356324312 Se
   0.5871599423506666    0.9830337890971550    0.5267847356324313 Se
   0.6397915212980352    0.3514548417287338    0.5267847356324312 Se
   0.5345283634032985    0.6146127364655759    0.5267847356324312 Se
   0.4292652055085613    0.8777706312024181    0.5267847356324312 Se
   0.4818967844559299    0.2461916838339969    0.5267847356324313 Se
   0.3766336265611930    0.5093495785708388    0.5267847356324313 Se
   0.2713704686664561    0.7725074733076810    0.5267847356324312 Se
   0.1661073107717195    0.0356653680445233    0.5267847356324313 Se
   0.3240020476138246    0.1409285259392602    0.5267847356324313 Se
   0.2187388897190878    0.4040864206761023    0.5267847356324313 Se
   0.1134757318243508    0.6672443154129444    0.5267847356324313 Se
   0.0082125739296140    0.9304022101497864    0.5267847356324313 Se
   0.0608441528769825    0.2988232627813654    0.5267847356324313 Se
   0.9555809949822456    0.5619811575182075    0.5267847356324312 Se
   0.8503178370875089    0.8251390522550496    0.5267847356324313 Se
   0.9029494160348774    0.1935601048866286    0.5267847356324312 Se
   0.7976862581401403    0.4567179996234708    0.5267847356324312 Se
   0.7450546791927720    0.0882969469918918    0.5267847356324313 Se
   0.8323154567250132    0.7019057178072697    0.4543065337621887 Se
   0.7270522988302763    0.9650636125441118    0.4543065337621887 Se
   0.7796838777776449    0.3334846651756908    0.4543065337621887 Se
   0.6744207198829079    0.5966425599125329    0.4543065337621887 Se
   0.5691575619881711    0.8598004546493749    0.4543065337621887 Se
   0.6217891409355395    0.2282215072809539    0.4543065337621887 Se
   0.5165259830408025    0.4913794020177960    0.4543065337621887 Se
   0.4112628251460658    0.7545372967546380    0.4543065337621887 Se
   0.3059996672513290    0.0176951914914802    0.4543065337621887 Se
   0.4638944040934342    0.1229583493862172    0.4543065337621887 Se
   0.3586312461986974    0.3861162441230592    0.4543065337621887 Se
   0.2533680883039606    0.6492741388599013    0.4543065337621887 Se
   0.1481049304092237    0.9124320335967433    0.4543065337621887 Se
   0.2007365093565920    0.2808530862283224    0.4543065337621887 Se
   0.0954733514618553    0.5440109809651645    0.4543065337621887 Se
   0.9902101935671183    0.8071688757020066    0.4543065337621887 Se
   0.0428417725144868    0.1755899283335856    0.4543065337621887 Se
   0.9375786146197500    0.4387478230704276    0.4543065337621887 Se
   0.8849470356723816    0.0703267704388488    0.4543065337621887 Se
