{'film_sl_vectors': array([[-16.68331135,  -7.22408573,  -0.        ],
       [-14.59789743,  10.83612859,   0.        ]]), 'substrate_sl_vectors': array([[  0.        ,  17.99724171,   0.        ],
       [-15.58606852,   8.99862085,   0.        ]]), 'film_vectors': array([[ 4.17082784,  0.        ,  0.        ],
       [-2.08541392,  3.61204286,  0.        ]]), 'substrate_vectors': array([[ 3.46357078,  0.        ,  0.        ],
       [-1.73178539,  2.99954028,  0.        ]]), 'film_transformation': array([[ 1.,  8.],
       [ 0., 19.]]), 'substrate_transformation': array([[3., 6.],
       [0., 9.]]), 'strain': Strain([[-1.00138831e-02 -2.28715760e-11  0.00000000e+00]
 [-2.28715760e-11 -1.00138831e-02  0.00000000e+00]
 [ 0.00000000e+00  0.00000000e+00  0.00000000e+00]]), 'von_mises_strain': 0.006675922077749086, 'termination': ('default', 'default'), 'film_thickness': 1, 'substrate_thickness': 1, 'signed_angle': -113.4132244472258, 'decomposition_angle': -66.58677555362944}