Nb126 Bi172 Se510
1.0
  27.4912408102034931    0.0000000000000000    0.0000000000000017
  13.7456204045361741   23.8081129246066894    0.0000000000000017
   0.0000000000000000    0.0000000000000000   49.9893053307188922
Nb Bi Se
126 172 510
direct
   0.0242678938454557    0.0042200133359327    0.3566429020965913 Nb
   0.0718869414645033    0.0994581085740279    0.3566429020965913 Nb
   0.2147440843216462    0.0518390609549803    0.3566429020965913 Nb
   0.3576012271787891    0.0042200133359327    0.3566429020965913 Nb
   0.1195059890835509    0.1946962038121231    0.3566429020965913 Nb
   0.2623631319406938    0.1470771561930755    0.3566429020965913 Nb
   0.4052202747978367    0.0994581085740279    0.3566429020965913 Nb
   0.5480774176549796    0.0518390609549803    0.3566429020965913 Nb
   0.6909345605121225    0.0042200133359327    0.3566429020965913 Nb
   0.0242678938454557    0.3375533466692660    0.3566429020965913 Nb
   0.1671250367025985    0.2899342990502183    0.3566429020965913 Nb
   0.3099821795597414    0.2423152514311707    0.3566429020965913 Nb
   0.4528393224168843    0.1946962038121231    0.3566429020965913 Nb
   0.5956964652740274    0.1470771561930755    0.3566429020965913 Nb
   0.7385536081311699    0.0994581085740279    0.3566429020965913 Nb
   0.8814107509883129    0.0518390609549803    0.3566429020965913 Nb
   0.0718869414645034    0.4327914419073610    0.3566429020965913 Nb
   0.2147440843216462    0.3851723942883135    0.3566429020965913 Nb
   0.3576012271787891    0.3375533466692658    0.3566429020965913 Nb
   0.5004583700359321    0.2899342990502184    0.3566429020965913 Nb
   0.6433155128930750    0.2423152514311707    0.3566429020965913 Nb
   0.7861726557502178    0.1946962038121231    0.3566429020965913 Nb
   0.9290297986073605    0.1470771561930755    0.3566429020965913 Nb
   0.1195059890835508    0.5280295371454563    0.3566429020965913 Nb
   0.2623631319406939    0.4804104895264087    0.3566429020965913 Nb
   0.4052202747978367    0.4327914419073611    0.3566429020965913 Nb
   0.5480774176549796    0.3851723942883135    0.3566429020965913 Nb
   0.6909345605121227    0.3375533466692658    0.3566429020965913 Nb
   0.8337917033692654    0.2899342990502182    0.3566429020965913 Nb
   0.9766488462264082    0.2423152514311707    0.3566429020965913 Nb
   0.0242678938454556    0.6708866800025991    0.3566429020965913 Nb
   0.1671250367025985    0.6232676323835515    0.3566429020965913 Nb
   0.3099821795597413    0.5756485847645040    0.3566429020965913 Nb
   0.4528393224168843    0.5280295371454565    0.3566429020965913 Nb
   0.5956964652740271    0.4804104895264087    0.3566429020965913 Nb
   0.7385536081311701    0.4327914419073611    0.3566429020965913 Nb
   0.8814107509883131    0.3851723942883135    0.3566429020965913 Nb
   0.0718869414645033    0.7661247752406943    0.3566429020965913 Nb
   0.2147440843216461    0.7185057276216469    0.3566429020965913 Nb
   0.3576012271787890    0.6708866800025993    0.3566429020965913 Nb
   0.5004583700359320    0.6232676323835515    0.3566429020965913 Nb
   0.6433155128930748    0.5756485847645038    0.3566429020965913 Nb
   0.7861726557502176    0.5280295371454563    0.3566429020965913 Nb
   0.9290297986073606    0.4804104895264087    0.3566429020965913 Nb
   0.1195059890835511    0.8613628704787893    0.3566429020965913 Nb
   0.2623631319406938    0.8137438228597421    0.3566429020965913 Nb
   0.4052202747978366    0.7661247752406943    0.3566429020965913 Nb
   0.5480774176549794    0.7185057276216468    0.3566429020965913 Nb
   0.6909345605121224    0.6708866800025990    0.3566429020965913 Nb
   0.8337917033692657    0.6232676323835515    0.3566429020965913 Nb
   0.9766488462264086    0.5756485847645038    0.3566429020965913 Nb
   0.1671250367025985    0.9566009657168848    0.3566429020965913 Nb
   0.3099821795597416    0.9089819180978368    0.3566429020965913 Nb
   0.4528393224168843    0.8613628704787895    0.3566429020965913 Nb
   0.5956964652740274    0.8137438228597419    0.3566429020965913 Nb
   0.7385536081311703    0.7661247752406943    0.3566429020965913 Nb
   0.8814107509883130    0.7185057276216466    0.3566429020965913 Nb
   0.5004583700359321    0.9566009657168846    0.3566429020965913 Nb
   0.6433155128930750    0.9089819180978371    0.3566429020965913 Nb
   0.7861726557502179    0.8613628704787895    0.3566429020965913 Nb
   0.9290297986073609    0.8137438228597419    0.3566429020965913 Nb
   0.8337917033692656    0.9566009657168846    0.3566429020965913 Nb
   0.9766488462264085    0.9089819180978371    0.3566429020965913 Nb
   0.0242309899742243    0.0045937092203552    0.2336917587878816 Nb
   0.0718500375932719    0.0998318044584504    0.2336917587878816 Nb
   0.2147071804504148    0.0522127568394028    0.2336917587878816 Nb
   0.3575643233075577    0.0045937092203552    0.2336917587878816 Nb
   0.1194690852123195    0.1950698996965456    0.2336917587878816 Nb
   0.2623262280694625    0.1474508520774980    0.2336917587878816 Nb
   0.4051833709266053    0.0998318044584504    0.2336917587878816 Nb
   0.5480405137837482    0.0522127568394028    0.2336917587878816 Nb
   0.6908976566408912    0.0045937092203552    0.2336917587878816 Nb
   0.0242309899742243    0.3379270425536884    0.2336917587878816 Nb
   0.1670881328313672    0.2903079949346408    0.2336917587878816 Nb
   0.3099452756885101    0.2426889473155933    0.2336917587878816 Nb
   0.4528024185456529    0.1950698996965456    0.2336917587878816 Nb
   0.5956595614027960    0.1474508520774981    0.2336917587878816 Nb
   0.7385167042599388    0.0998318044584504    0.2336917587878816 Nb
   0.8813738471170814    0.0522127568394028    0.2336917587878816 Nb
   0.0718500375932720    0.4331651377917837    0.2336917587878816 Nb
   0.2147071804504148    0.3855460901727360    0.2336917587878816 Nb
   0.3575643233075578    0.3379270425536884    0.2336917587878816 Nb
   0.5004214661647008    0.2903079949346408    0.2336917587878816 Nb
   0.6432786090218435    0.2426889473155932    0.2336917587878816 Nb
   0.7861357518789864    0.1950698996965456    0.2336917587878816 Nb
   0.9289928947361291    0.1474508520774980    0.2336917587878816 Nb
   0.1194690852123196    0.5284032330298789    0.2336917587878816 Nb
   0.2623262280694626    0.4807841854108313    0.2336917587878816 Nb
   0.4051833709266053    0.4331651377917837    0.2336917587878816 Nb
   0.5480405137837483    0.3855460901727360    0.2336917587878816 Nb
   0.6908976566408912    0.3379270425536884    0.2336917587878816 Nb
   0.8337547994980340    0.2903079949346408    0.2336917587878816 Nb
   0.9766119423551770    0.2426889473155933    0.2336917587878816 Nb
   0.0242309899742243    0.6712603758870218    0.2336917587878816 Nb
   0.1670881328313671    0.6236413282679740    0.2336917587878816 Nb
   0.3099452756885100    0.5760222806489266    0.2336917587878816 Nb
   0.4528024185456530    0.5284032330298789    0.2336917587878816 Nb
   0.5956595614027961    0.4807841854108313    0.2336917587878816 Nb
   0.7385167042599389    0.4331651377917837    0.2336917587878816 Nb
   0.8813738471170814    0.3855460901727361    0.2336917587878816 Nb
   0.0718500375932720    0.7664984711251168    0.2336917587878816 Nb
   0.2147071804504148    0.7188794235060693    0.2336917587878816 Nb
   0.3575643233075577    0.6712603758870218    0.2336917587878816 Nb
   0.5004214661647007    0.6236413282679740    0.2336917587878816 Nb
   0.6432786090218435    0.5760222806489264    0.2336917587878816 Nb
   0.7861357518789860    0.5284032330298787    0.2336917587878816 Nb
   0.9289928947361292    0.4807841854108312    0.2336917587878816 Nb
   0.1194690852123197    0.8617365663632121    0.2336917587878816 Nb
   0.2623262280694624    0.8141175187441646    0.2336917587878816 Nb
   0.4051833709266053    0.7664984711251168    0.2336917587878816 Nb
   0.5480405137837482    0.7188794235060691    0.2336917587878816 Nb
   0.6908976566408910    0.6712603758870217    0.2336917587878816 Nb
   0.8337547994980340    0.6236413282679739    0.2336917587878816 Nb
   0.9766119423551769    0.5760222806489266    0.2336917587878816 Nb
   0.1670881328313671    0.9569746616013073    0.2336917587878816 Nb
   0.3099452756885100    0.9093556139822596    0.2336917587878816 Nb
   0.4528024185456529    0.8617365663632119    0.2336917587878816 Nb
   0.5956595614027956    0.8141175187441645    0.2336917587878816 Nb
   0.7385167042599388    0.7664984711251168    0.2336917587878816 Nb
   0.8813738471170819    0.7188794235060693    0.2336917587878816 Nb
   0.5004214661647005    0.9569746616013073    0.2336917587878816 Nb
   0.6432786090218435    0.9093556139822595    0.2336917587878816 Nb
   0.7861357518789863    0.8617365663632121    0.2336917587878816 Nb
   0.9289928947361292    0.8141175187441643    0.2336917587878816 Nb
   0.8337547994980343    0.9569746616013071    0.2336917587878816 Nb
   0.9766119423551771    0.9093556139822596    0.2336917587878816 Nb
   0.8861952119709663    0.7614679077602856    0.7671208852038272 Bi
   0.7466603282500359    0.7382120938067973    0.7671208852038272 Bi
   0.9094510259244551    0.5986772100858672    0.7671208852038272 Bi
   0.6071254445291060    0.7149562798533089    0.7671208852038272 Bi
   0.7699161422035247    0.5754213961323786    0.7671208852038272 Bi
   0.9327068398779429    0.4358865124114484    0.7671208852038272 Bi
   0.4675905608081759    0.6917004658998205    0.7671208852038272 Bi
   0.6303812584825945    0.5521655821788901    0.7671208852038272 Bi
   0.7931719561570131    0.4126306984579600    0.7671208852038272 Bi
   0.9559626538314314    0.2730958147370298    0.7671208852038272 Bi
   0.3280556770872454    0.6684446519463323    0.7671208852038272 Bi
   0.4908463747616645    0.5289097682254018    0.7671208852038272 Bi
   0.6536370724360829    0.3893748845044717    0.7671208852038272 Bi
   0.8164277701105014    0.2498400007835415    0.7671208852038272 Bi
   0.9792184677849197    0.1103051170626112    0.7671208852038272 Bi
   0.1885207933663152    0.6451888379928438    0.7671208852038272 Bi
   0.3513114910407339    0.5056539542719136    0.7671208852038272 Bi
   0.5141021887151527    0.3661190705509833    0.7671208852038272 Bi
   0.6768928863895710    0.2265841868300530    0.7671208852038272 Bi
   0.8396835840639897    0.0870493031091228    0.7671208852038272 Bi
   0.0024742817384083    0.9475144193881926    0.7671208852038272 Bi
   0.0489859096453850    0.6219330240393554    0.7671208852038272 Bi
   0.2117766073198037    0.4823981403184250    0.7671208852038272 Bi
   0.3745673049942222    0.3428632565974949    0.7671208852038272 Bi
   0.5373580026686408    0.2033283728765646    0.7671208852038272 Bi
   0.7001487003430596    0.0637934891556345    0.7671208852038272 Bi
   0.8629393980174781    0.9242586054347042    0.7671208852038272 Bi
   0.0722417235988734    0.4591423263649368    0.7671208852038272 Bi
   0.2350324212732921    0.3196074426440066    0.7671208852038272 Bi
   0.3978231189477108    0.1800725589230763    0.7671208852038272 Bi
   0.5606138166221293    0.0405376752021461    0.7671208852038272 Bi
   0.7234045142965483    0.9010027914812159    0.7671208852038272 Bi
   0.0954975375523619    0.2963516286905182    0.7671208852038272 Bi
   0.2582882352267804    0.1568167449695880    0.7671208852038272 Bi
   0.4210789329011991    0.0172818612486577    0.7671208852038272 Bi
   0.5838696305756178    0.8777469775277276    0.7671208852038272 Bi
   0.1187533515058502    0.1335609310160995    0.7671208852038272 Bi
   0.2815440491802689    0.9940260472951693    0.7671208852038272 Bi
   0.4443347468546874    0.8544911635742390    0.7671208852038272 Bi
   0.1420091654593386    0.9707702333416810    0.7671208852038272 Bi
   0.3047998631337573    0.8312353496207507    0.7671208852038272 Bi
   0.1652649794128271    0.8079795356672621    0.7671208852038272 Bi
   0.0257300956918968    0.7847237217137740    0.7671208852038272 Bi
   0.9258838536391661    0.8240505153675507    0.6873709670584138 Bi
   0.7863489699182363    0.8007947014140625    0.6873709670584138 Bi
   0.9491396675926549    0.6612598176931322    0.6873709670584138 Bi
   0.6468140861973062    0.7775388874605740    0.6873709670584138 Bi
   0.8096047838717246    0.6380040037396438    0.6873709670584138 Bi
   0.9723954815461432    0.4984691200187135    0.6873709670584138 Bi
   0.5072792024763756    0.7542830735070857    0.6873709670584138 Bi
   0.6700699001507943    0.6147481897861553    0.6873709670584138 Bi
   0.8328605978252129    0.4752133060652252    0.6873709670584138 Bi
   0.9956512954996314    0.3356784223442950    0.6873709670584138 Bi
   0.3677443187554453    0.7310272595535974    0.6873709670584138 Bi
   0.5305350164298641    0.5914923758326670    0.6873709670584138 Bi
   0.6933257141042828    0.4519574921117369    0.6873709670584138 Bi
   0.8561164117787012    0.3124226083908067    0.6873709670584138 Bi
   0.0189071094531198    0.1728877246698764    0.6873709670584138 Bi
   0.2282094350345149    0.7077714456001089    0.6873709670584138 Bi
   0.3910001327089338    0.5682365618791787    0.6873709670584138 Bi
   0.5537908303833524    0.4287016781582484    0.6873709670584138 Bi
   0.7165815280577710    0.2891667944373182    0.6873709670584138 Bi
   0.8793722257321896    0.1496319107163880    0.6873709670584138 Bi
   0.0421629234066082    0.0100970269954578    0.6873709670584138 Bi
   0.0886745513135848    0.6845156316466204    0.6873709670584138 Bi
   0.2514652489880035    0.5449807479256902    0.6873709670584138 Bi
   0.4142559466624220    0.4054458642047601    0.6873709670584138 Bi
   0.5770466443368407    0.2659109804838298    0.6873709670584138 Bi
   0.7398373420112594    0.1263760967628996    0.6873709670584138 Bi
   0.9026280396856780    0.9868412130419694    0.6873709670584138 Bi
   0.1119303652670734    0.5217249339722020    0.6873709670584138 Bi
   0.2747210629414921    0.3821900502512717    0.6873709670584138 Bi
   0.4375117606159106    0.2426551665303415    0.6873709670584138 Bi
   0.6003024582903295    0.1031202828094112    0.6873709670584138 Bi
   0.7630931559647477    0.9635853990884811    0.6873709670584138 Bi
   0.1351861792205619    0.3589342362977833    0.6873709670584138 Bi
   0.2979768768949805    0.2193993525768530    0.6873709670584138 Bi
   0.4607675745693990    0.0798644688559229    0.6873709670584138 Bi
   0.6235582722438174    0.9403295851349927    0.6873709670584138 Bi
   0.1584419931740502    0.1961435386233647    0.6873709670584138 Bi
   0.3212326908484687    0.0566086549024345    0.6873709670584138 Bi
   0.4840233885228874    0.9170737711815041    0.6873709670584138 Bi
   0.1816978071275385    0.0333528409489461    0.6873709670584138 Bi
   0.3444885048019572    0.8938179572280158    0.6873709670584138 Bi
   0.2049536210810268    0.8705621432745275    0.6873709670584138 Bi
   0.0654187373600967    0.8473063293210391    0.6873709670584138 Bi
   0.9247901650047740    0.8268933279703488    0.5665155440360312 Bi
   0.7852552812838436    0.8036375140168605    0.5665155440360312 Bi
   0.9480459789582627    0.6641026302959304    0.5665155440360312 Bi
   0.6457203975629134    0.7803817000633722    0.5665155440360312 Bi
   0.8085110952373321    0.6408468163424419    0.5665155440360312 Bi
   0.9713017929117507    0.5013119326215116    0.5665155440360312 Bi
   0.5061855138419834    0.7571258861098837    0.5665155440360312 Bi
   0.6689762115164020    0.6175910023889535    0.5665155440360312 Bi
   0.8317669091908202    0.4780561186680233    0.5665155440360312 Bi
   0.9945576068652390    0.3385212349470931    0.5665155440360312 Bi
   0.3666506301210531    0.7338700721563953    0.5665155440360312 Bi
   0.5294413277954717    0.5943351884354653    0.5665155440360312 Bi
   0.6922320254698902    0.4548003047145351    0.5665155440360312 Bi
   0.8550227231443089    0.3152654209936047    0.5665155440360312 Bi
   0.0178134208187274    0.1757305372726745    0.5665155440360312 Bi
   0.2271157464001226    0.7106142582029070    0.5665155440360312 Bi
   0.3899064440745414    0.5710793744819768    0.5665155440360312 Bi
   0.5526971417489601    0.4315444907610467    0.5665155440360312 Bi
   0.7154878394233787    0.2920096070401162    0.5665155440360312 Bi
   0.8782785370977970    0.1524747233191861    0.5665155440360312 Bi
   0.0410692347722160    0.0129398395982559    0.5665155440360312 Bi
   0.0875808626791926    0.6873584442494186    0.5665155440360312 Bi
   0.2503715603536112    0.5478235605284885    0.5665155440360312 Bi
   0.4131622580280297    0.4082886768075581    0.5665155440360312 Bi
   0.5759529557024484    0.2687537930866279    0.5665155440360312 Bi
   0.7387436533768670    0.1292189093656978    0.5665155440360312 Bi
   0.9015343510512857    0.9896840256447675    0.5665155440360312 Bi
   0.1108366766326811    0.5245677465750002    0.5665155440360312 Bi
   0.2736273743070996    0.3850328628540699    0.5665155440360312 Bi
   0.4364180719815183    0.2454979791331396    0.5665155440360312 Bi
   0.5992087696559372    0.1059630954122094    0.5665155440360312 Bi
   0.7619994673303554    0.9664282116912791    0.5665155440360312 Bi
   0.1340924905861695    0.3617770489005814    0.5665155440360312 Bi
   0.2968831882605879    0.2222421651796512    0.5665155440360312 Bi
   0.4596738859350066    0.0827072814587210    0.5665155440360312 Bi
   0.6224645836094252    0.9431723977377907    0.5665155440360312 Bi
   0.1573483045396577    0.1989863512261628    0.5665155440360312 Bi
   0.3201390022140763    0.0594514675052326    0.5665155440360312 Bi
   0.4829296998884949    0.9199165837843022    0.5665155440360312 Bi
   0.1806041184931461    0.0361956535517442    0.5665155440360312 Bi
   0.3433948161675648    0.8966607698308139    0.5665155440360312 Bi
   0.2038599324466346    0.8734049558773255    0.5665155440360312 Bi
   0.0643250487257044    0.8501491419238373    0.5665155440360312 Bi
   0.8249046311222922    0.8653716771610219    0.4870641414761425 Bi
   0.6853697474013625    0.8421158632075335    0.4870641414761425 Bi
   0.8481604450757810    0.7025809794866036    0.4870641414761425 Bi
   0.5458348636804318    0.8188600492540451    0.4870641414761425 Bi
   0.7086255613548504    0.6793251655331152    0.4870641414761425 Bi
   0.8714162590292694    0.5397902818121847    0.4870641414761425 Bi
   0.4062999799595019    0.7956042353005568    0.4870641414761425 Bi
   0.5690906776339203    0.6560693515796266    0.4870641414761425 Bi
   0.7318813753083390    0.5165344678586963    0.4870641414761425 Bi
   0.8946720729827575    0.3769995841377662    0.4870641414761425 Bi
   0.2667650962385716    0.7723484213470684    0.4870641414761425 Bi
   0.4295557939129900    0.6328135376261382    0.4870641414761425 Bi
   0.5923464915874085    0.4932786539052081    0.4870641414761425 Bi
   0.7551371892618274    0.3537437701842778    0.4870641414761425 Bi
   0.9179278869362456    0.2142088864633475    0.4870641414761425 Bi
   0.1272302125176411    0.7490926073935800    0.4870641414761425 Bi
   0.2900209101920598    0.6095577236726499    0.4870641414761425 Bi
   0.4528116078664786    0.4700228399517197    0.4870641414761425 Bi
   0.6156023055408971    0.3304879562307894    0.4870641414761425 Bi
   0.7783930032153155    0.1909530725098592    0.4870641414761425 Bi
   0.9411837008897345    0.0514181887889290    0.4870641414761425 Bi
   0.9876953287967108    0.7258367934400918    0.4870641414761425 Bi
   0.1504860264711295    0.5863019097191614    0.4870641414761425 Bi
   0.3132767241455480    0.4467670259982312    0.4870641414761425 Bi
   0.4760674218199669    0.3072321422773009    0.4870641414761425 Bi
   0.6388581194943855    0.1676972585563708    0.4870641414761425 Bi
   0.8016488171688041    0.0281623748354406    0.4870641414761425 Bi
   0.0109511427501993    0.5630460957656732    0.4870641414761425 Bi
   0.1737418404246180    0.4235112120447429    0.4870641414761425 Bi
   0.3365325380990366    0.2839763283238126    0.4870641414761425 Bi
   0.4993232357734553    0.1444414446028824    0.4870641414761425 Bi
   0.6621139334478741    0.0049065608819522    0.4870641414761425 Bi
   0.0342069567036878    0.4002553980912545    0.4870641414761425 Bi
   0.1969976543781063    0.2607205143703242    0.4870641414761425 Bi
   0.3597883520525251    0.1211856306493941    0.4870641414761425 Bi
   0.5225790497269436    0.9816507469284638    0.4870641414761425 Bi
   0.0574627706571761    0.2374647004168359    0.4870641414761425 Bi
   0.2202534683315948    0.0979298166959057    0.4870641414761425 Bi
   0.3830441660060133    0.9583949329749755    0.4870641414761425 Bi
   0.0807185846106645    0.0746740027424173    0.4870641414761425 Bi
   0.2435092822850833    0.9351391190214871    0.4870641414761425 Bi
   0.1039743985641529    0.9118833050679988    0.4870641414761425 Bi
   0.9644395148432227    0.8886274911145102    0.4870641414761425 Bi
   0.9607179912024262    0.9887407325020655    0.2000427878291580 Se
   0.0083370388214738    0.0839788277401607    0.2000427878291580 Se
   0.1511941816786167    0.0363597801211130    0.2000427878291580 Se
   0.2940513245357596    0.9887407325020654    0.2000427878291580 Se
   0.0559560864405214    0.1792169229782558    0.2000427878291580 Se
   0.1988132292976643    0.1315978753592083    0.2000427878291580 Se
   0.3416703721548072    0.0839788277401606    0.2000427878291580 Se
   0.4845275150119498    0.0363597801211130    0.2000427878291580 Se
   0.6273846578690931    0.9887407325020654    0.2000427878291580 Se
   0.9607179912024263    0.3220740658353987    0.2000427878291580 Se
   0.1035751340595691    0.2744550182163511    0.2000427878291580 Se
   0.2464322769167120    0.2268359705973035    0.2000427878291580 Se
   0.3892894197738547    0.1792169229782558    0.2000427878291580 Se
   0.5321465626309978    0.1315978753592083    0.2000427878291580 Se
   0.6750037054881406    0.0839788277401607    0.2000427878291580 Se
   0.8178608483452835    0.0363597801211131    0.2000427878291580 Se
   0.0083370388214738    0.4173121610734938    0.2000427878291580 Se
   0.1511941816786166    0.3696931134544462    0.2000427878291580 Se
   0.2940513245357595    0.3220740658353987    0.2000427878291580 Se
   0.4369084673929027    0.2744550182163511    0.2000427878291580 Se
   0.5797656102500455    0.2268359705973034    0.2000427878291580 Se
   0.7226227531071884    0.1792169229782558    0.2000427878291580 Se
   0.8654798959643311    0.1315978753592083    0.2000427878291580 Se
   0.0559560864405214    0.5125502563115891    0.2000427878291580 Se
   0.1988132292976643    0.4649312086925414    0.2000427878291580 Se
   0.3416703721548072    0.4173121610734939    0.2000427878291580 Se
   0.4845275150119501    0.3696931134544462    0.2000427878291580 Se
   0.6273846578690929    0.3220740658353986    0.2000427878291580 Se
   0.7702418007262359    0.2744550182163510    0.2000427878291580 Se
   0.9130989435833788    0.2268359705973034    0.2000427878291580 Se
   0.9607179912024264    0.6554073991687319    0.2000427878291580 Se
   0.1035751340595691    0.6077883515496842    0.2000427878291580 Se
   0.2464322769167120    0.5601693039306367    0.2000427878291580 Se
   0.3892894197738548    0.5125502563115891    0.2000427878291580 Se
   0.5321465626309977    0.4649312086925415    0.2000427878291580 Se
   0.6750037054881406    0.4173121610734940    0.2000427878291580 Se
   0.8178608483452835    0.3696931134544463    0.2000427878291580 Se
   0.0083370388214738    0.7506454944068269    0.2000427878291580 Se
   0.1511941816786167    0.7030264467877794    0.2000427878291580 Se
   0.2940513245357598    0.6554073991687319    0.2000427878291580 Se
   0.4369084673929025    0.6077883515496841    0.2000427878291580 Se
   0.5797656102500452    0.5601693039306366    0.2000427878291580 Se
   0.7226227531071884    0.5125502563115889    0.2000427878291580 Se
   0.8654798959643311    0.4649312086925414    0.2000427878291580 Se
   0.0559560864405216    0.8458835896449221    0.2000427878291580 Se
   0.1988132292976644    0.7982645420258747    0.2000427878291580 Se
   0.3416703721548071    0.7506454944068272    0.2000427878291580 Se
   0.4845275150119501    0.7030264467877793    0.2000427878291580 Se
   0.6273846578690929    0.6554073991687318    0.2000427878291580 Se
   0.7702418007262356    0.6077883515496842    0.2000427878291580 Se
   0.9130989435833790    0.5601693039306366    0.2000427878291580 Se
   0.1035751340595691    0.9411216848830175    0.2000427878291580 Se
   0.2464322769167121    0.8935026372639697    0.2000427878291580 Se
   0.3892894197738547    0.8458835896449222    0.2000427878291580 Se
   0.5321465626309978    0.7982645420258746    0.2000427878291580 Se
   0.6750037054881405    0.7506454944068272    0.2000427878291580 Se
   0.8178608483452833    0.7030264467877793    0.2000427878291580 Se
   0.4369084673929026    0.9411216848830175    0.2000427878291580 Se
   0.5797656102500451    0.8935026372639699    0.2000427878291580 Se
   0.7226227531071883    0.8458835896449223    0.2000427878291580 Se
   0.8654798959643312    0.7982645420258746    0.2000427878291580 Se
   0.7702418007262358    0.9411216848830173    0.2000427878291580 Se
   0.9130989435833788    0.8935026372639699    0.2000427878291580 Se
   0.0401290594549008    0.9248631006808344    0.3229896502366214 Se
   0.0877481070739483    0.0201011959189297    0.3229896502366213 Se
   0.2306052499310911    0.9724821482998821    0.3229896502366213 Se
   0.3734623927882343    0.9248631006808343    0.3229896502366214 Se
   0.1353671546929959    0.1153392911570249    0.3229896502366213 Se
   0.2782242975501389    0.0677202435379773    0.3229896502366213 Se
   0.4210814404072818    0.0201011959189297    0.3229896502366213 Se
   0.5639385832644246    0.9724821482998821    0.3229896502366213 Se
   0.7067957261215676    0.9248631006808343    0.3229896502366214 Se
   0.0401290594549007    0.2581964340141676    0.3229896502366213 Se
   0.1829862023120435    0.2105773863951201    0.3229896502366213 Se
   0.3258433451691865    0.1629583387760725    0.3229896502366213 Se
   0.4687004880263293    0.1153392911570249    0.3229896502366213 Se
   0.6115576308834724    0.0677202435379774    0.3229896502366213 Se
   0.7544147737406152    0.0201011959189297    0.3229896502366213 Se
   0.8972719165977578    0.9724821482998821    0.3229896502366214 Se
   0.0877481070739484    0.3534345292522629    0.3229896502366213 Se
   0.2306052499310911    0.3058154816332153    0.3229896502366213 Se
   0.3734623927882341    0.2581964340141677    0.3229896502366213 Se
   0.5163195356453769    0.2105773863951201    0.3229896502366213 Se
   0.6591766785025200    0.1629583387760725    0.3229896502366213 Se
   0.8020338213596628    0.1153392911570249    0.3229896502366214 Se
   0.9448909642168056    0.0677202435379773    0.3229896502366214 Se
   0.1353671546929960    0.4486726244903581    0.3229896502366213 Se
   0.2782242975501390    0.4010535768713104    0.3229896502366213 Se
   0.4210814404072817    0.3534345292522629    0.3229896502366213 Se
   0.5639385832644246    0.3058154816332152    0.3229896502366214 Se
   0.7067957261215675    0.2581964340141676    0.3229896502366214 Se
   0.8496528689787104    0.2105773863951200    0.3229896502366214 Se
   0.9925100118358533    0.1629583387760725    0.3229896502366213 Se
   0.0401290594549007    0.5915297673475010    0.3229896502366213 Se
   0.1829862023120436    0.5439107197284533    0.3229896502366213 Se
   0.3258433451691864    0.4962916721094056    0.3229896502366213 Se
   0.4687004880263294    0.4486726244903581    0.3229896502366214 Se
   0.6115576308834720    0.4010535768713105    0.3229896502366214 Se
   0.7544147737406152    0.3534345292522630    0.3229896502366214 Se
   0.8972719165977580    0.3058154816332153    0.3229896502366214 Se
   0.0877481070739483    0.6867678625855962    0.3229896502366213 Se
   0.2306052499310912    0.6391488149665486    0.3229896502366214 Se
   0.3734623927882342    0.5915297673475007    0.3229896502366214 Se
   0.5163195356453771    0.5439107197284533    0.3229896502366214 Se
   0.6591766785025198    0.4962916721094056    0.3229896502366214 Se
   0.8020338213596628    0.4486726244903581    0.3229896502366214 Se
   0.9448909642168055    0.4010535768713104    0.3229896502366214 Se
   0.1353671546929960    0.7820059578236913    0.3229896502366214 Se
   0.2782242975501390    0.7343869102046436    0.3229896502366214 Se
   0.4210814404072817    0.6867678625855960    0.3229896502366214 Se
   0.5639385832644246    0.6391488149665484    0.3229896502366214 Se
   0.7067957261215675    0.5915297673475010    0.3229896502366214 Se
   0.8496528689787104    0.5439107197284533    0.3229896502366214 Se
   0.9925100118358533    0.4962916721094056    0.3229896502366213 Se
   0.1829862023120435    0.8772440530617865    0.3229896502366214 Se
   0.3258433451691864    0.8296250054427390    0.3229896502366214 Se
   0.4687004880263296    0.7820059578236912    0.3229896502366214 Se
   0.6115576308834725    0.7343869102046436    0.3229896502366214 Se
   0.7544147737406151    0.6867678625855960    0.3229896502366214 Se
   0.8972719165977582    0.6391488149665484    0.3229896502366214 Se
   0.5163195356453771    0.8772440530617865    0.3229896502366214 Se
   0.6591766785025200    0.8296250054427386    0.3229896502366214 Se
   0.8020338213596631    0.7820059578236912    0.3229896502366214 Se
   0.9448909642168055    0.7343869102046434    0.3229896502366214 Se
   0.8496528689787106    0.8772440530617864    0.3229896502366214 Se
   0.9925100118358532    0.8296250054427385    0.3229896502366213 Se
   0.9607388550380465    0.9886955731201450    0.2673459347889959 Se
   0.0083579026570939    0.0839336683582401    0.2673459347889959 Se
   0.1512150455142368    0.0363146207391925    0.2673459347889959 Se
   0.2940721883713797    0.9886955731201449    0.2673459347889959 Se
   0.0559769502761415    0.1791717635963353    0.2673459347889959 Se
   0.1988340931332845    0.1315527159772877    0.2673459347889960 Se
   0.3416912359904273    0.0839336683582401    0.2673459347889960 Se