Nb60 Bi88 Se252
1.0
   6.9271415635605562    0.0000000000000000    0.0000000000000004
   1.7317853933840832   44.9931042738486084    0.0000000000000028
   0.0000000000000000    0.0000000000000000   44.4624158930297497
Nb Bi Se
60 88 252
direct
   0.1095754979943895    0.0219122290380231    0.3447480443666843 Nb
   0.6095754979943897    0.0219122290380231    0.3447480443666843 Nb
   0.3429088313277227    0.0885788957046898    0.3447480443666843 Nb
   0.8429088313277227    0.0885788957046898    0.3447480443666843 Nb
   0.5762421646610562    0.1552455623713565    0.3447480443666843 Nb
   0.0762421646610562    0.1552455623713565    0.3447480443666843 Nb
   0.3095754979943894    0.2219122290380232    0.3447480443666843 Nb
   0.8095754979943895    0.2219122290380231    0.3447480443666843 Nb
   0.5429088313277228    0.2885788957046898    0.3447480443666843 Nb
   0.0429088313277230    0.2885788957046899    0.3447480443666843 Nb
   0.2762421646610561    0.3552455623713564    0.3447480443666843 Nb
   0.7762421646610560    0.3552455623713564    0.3447480443666843 Nb
   0.5095754979943893    0.4219122290380232    0.3447480443666843 Nb
   0.0095754979943890    0.4219122290380232    0.3447480443666843 Nb
   0.2429088313277224    0.4885788957046898    0.3447480443666843 Nb
   0.7429088313277227    0.4885788957046897    0.3447480443666843 Nb
   0.4762421646610557    0.5552455623713564    0.3447480443666843 Nb
   0.9762421646610557    0.5552455623713564    0.3447480443666843 Nb
   0.2095754979943894    0.6219122290380229    0.3447480443666843 Nb
   0.7095754979943892    0.6219122290380229    0.3447480443666843 Nb
   0.4429088313277226    0.6885788957046899    0.3447480443666843 Nb
   0.9429088313277229    0.6885788957046896    0.3447480443666843 Nb
   0.1762421646610562    0.7552455623713564    0.3447480443666843 Nb
   0.6762421646610557    0.7552455623713565    0.3447480443666843 Nb
   0.4095754979943897    0.8219122290380234    0.3447480443666843 Nb
   0.9095754979943894    0.8219122290380231    0.3447480443666843 Nb
   0.1429088313277228    0.8885788957046900    0.3447480443666843 Nb
   0.6429088313277225    0.8885788957046898    0.3447480443666843 Nb
   0.3762421646610552    0.9552455623713565    0.3447480443666843 Nb
   0.8762421646610561    0.9552455623713565    0.3447480443666843 Nb
   0.1093794064090884    0.0221290657944304    0.2065134900768984 Nb
   0.6093794064090884    0.0221290657944304    0.2065134900768984 Nb
   0.3427127397424217    0.0887957324610970    0.2065134900768984 Nb
   0.8427127397424217    0.0887957324610970    0.2065134900768984 Nb
   0.5760460730757551    0.1554623991277637    0.2065134900768984 Nb
   0.0760460730757551    0.1554623991277637    0.2065134900768984 Nb
   0.3093794064090883    0.2221290657944304    0.2065134900768984 Nb
   0.8093794064090882    0.2221290657944304    0.2065134900768984 Nb
   0.5427127397424217    0.2887957324610971    0.2065134900768984 Nb
   0.0427127397424219    0.2887957324610971    0.2065134900768984 Nb
   0.2760460730757548    0.3554623991277637    0.2065134900768984 Nb
   0.7760460730757549    0.3554623991277637    0.2065134900768984 Nb
   0.5093794064090881    0.4221290657944304    0.2065134900768984 Nb
   0.0093794064090878    0.4221290657944304    0.2065134900768984 Nb
   0.2427127397424217    0.4887957324610971    0.2065134900768984 Nb
   0.7427127397424215    0.4887957324610971    0.2065134900768984 Nb
   0.4760460730757546    0.5554623991277636    0.2065134900768984 Nb
   0.9760460730757547    0.5554623991277636    0.2065134900768984 Nb
   0.2093794064090884    0.6221290657944304    0.2065134900768984 Nb
   0.7093794064090880    0.6221290657944304    0.2065134900768984 Nb
   0.4427127397424216    0.6887957324610970    0.2065134900768984 Nb
   0.9427127397424213    0.6887957324610970    0.2065134900768984 Nb
   0.1760460730757545    0.7554623991277636    0.2065134900768984 Nb
   0.6760460730757548    0.7554623991277636    0.2065134900768984 Nb
   0.4093794064090882    0.8221290657944303    0.2065134900768984 Nb
   0.9093794064090874    0.8221290657944303    0.2065134900768984 Nb
   0.1427127397424213    0.8887957324610970    0.2065134900768984 Nb
   0.6427127397424210    0.8887957324610970    0.2065134900768985 Nb
   0.3760460730757548    0.9554623991277635    0.2065134900768985 Nb
   0.8760460730757548    0.9554623991277635    0.2065134900768985 Nb
   0.0554546327456019    0.9949491982419201    0.7944001694220465 Bi
   0.0554546327456019    0.0858582891510110    0.7944001694220465 Bi
   0.0554546327456017    0.1767673800601019    0.7944001694220465 Bi
   0.0554546327456018    0.2676764709691928    0.7944001694220465 Bi
   0.0554546327456017    0.3585855618782837    0.7944001694220465 Bi
   0.0554546327456019    0.4494946527873746    0.7944001694220465 Bi
   0.0554546327456019    0.5404037436964654    0.7944001694220465 Bi
   0.0554546327456014    0.6313128346055563    0.7944001694220465 Bi
   0.0554546327456023    0.7222219255146474    0.7944001694220465 Bi
   0.0554546327456012    0.8131310164237384    0.7944001694220465 Bi
   0.0554546327456021    0.9040401073328292    0.7944001694220464 Bi
   0.5554546327456018    0.0404037436964655    0.7944001694220465 Bi
   0.5554546327456019    0.1313128346055564    0.7944001694220465 Bi
   0.5554546327456019    0.2222219255146473    0.7944001694220465 Bi
   0.5554546327456020    0.3131310164237382    0.7944001694220465 Bi
   0.5554546327456016    0.4040401073328292    0.7944001694220465 Bi
   0.5554546327456020    0.4949491982419201    0.7944001694220465 Bi
   0.5554546327456021    0.5858582891510110    0.7944001694220465 Bi
   0.5554546327456017    0.6767673800601021    0.7944001694220465 Bi
   0.5554546327456020    0.7676764709691928    0.7944001694220465 Bi
   0.5554546327456026    0.8585855618782841    0.7944001694220464 Bi
   0.5554546327456008    0.9494946527873747    0.7944001694220464 Bi
   0.2173495811155743    0.9497035662105233    0.7047369577364244 Bi
   0.2173495811155740    0.0406126571196143    0.7047369577364245 Bi
   0.2173495811155740    0.1315217480287053    0.7047369577364245 Bi
   0.2173495811155739    0.2224308389377961    0.7047369577364245 Bi
   0.2173495811155738    0.3133399298468871    0.7047369577364245 Bi
   0.2173495811155741    0.4042490207559780    0.7047369577364245 Bi
   0.2173495811155736    0.4951581116650689    0.7047369577364245 Bi
   0.2173495811155738    0.5860672025741598    0.7047369577364245 Bi
   0.2173495811155741    0.6769762934832506    0.7047369577364245 Bi
   0.2173495811155745    0.7678853843923417    0.7047369577364245 Bi
   0.2173495811155737    0.8587944753014324    0.7047369577364245 Bi
   0.7173495811155741    0.9951581116650688    0.7047369577364245 Bi
   0.7173495811155740    0.0860672025741598    0.7047369577364245 Bi
   0.7173495811155739    0.1769762934832507    0.7047369577364245 Bi
   0.7173495811155741    0.2678853843923416    0.7047369577364245 Bi
   0.7173495811155739    0.3587944753014325    0.7047369577364245 Bi
   0.7173495811155739    0.4497035662105234    0.7047369577364245 Bi
   0.7173495811155740    0.5406126571196144    0.7047369577364245 Bi
   0.7173495811155742    0.6315217480287053    0.7047369577364245 Bi
   0.7173495811155747    0.7224308389377964    0.7047369577364245 Bi
   0.7173495811155739    0.8133399298468871    0.7047369577364244 Bi
   0.7173495811155738    0.9042490207559780    0.7047369577364244 Bi
   0.2106808029089579    0.9486597674791993    0.5688586317166681 Bi
   0.2106808029089577    0.0395688583882903    0.5688586317166681 Bi
   0.2106808029089577    0.1304779492973812    0.5688586317166681 Bi
   0.2106808029089577    0.2213870402064721    0.5688586317166681 Bi
   0.2106808029089577    0.3122961311155630    0.5688586317166681 Bi
   0.2106808029089579    0.4032052220246539    0.5688586317166681 Bi
   0.2106808029089576    0.4941143129337449    0.5688586317166681 Bi
   0.2106808029089578    0.5850234038428358    0.5688586317166682 Bi
   0.2106808029089575    0.6759324947519266    0.5688586317166682 Bi
   0.2106808029089576    0.7668415856610176    0.5688586317166682 Bi
   0.2106808029089574    0.8577506765701085    0.5688586317166682 Bi
   0.7106808029089579    0.9941143129337447    0.5688586317166681 Bi
   0.7106808029089579    0.0850234038428357    0.5688586317166681 Bi
   0.7106808029089580    0.1759324947519267    0.5688586317166681 Bi
   0.7106808029089580    0.2668415856610175    0.5688586317166681 Bi
   0.7106808029089582    0.3577506765701084    0.5688586317166681 Bi
   0.7106808029089577    0.4486597674791993    0.5688586317166681 Bi
   0.7106808029089581    0.5395688583882902    0.5688586317166682 Bi
   0.7106808029089580    0.6304779492973811    0.5688586317166682 Bi
   0.7106808029089573    0.7213870402064722    0.5688586317166682 Bi
   0.7106808029089581    0.8122961311155629    0.5688586317166681 Bi
   0.7106808029089573    0.9032052220246538    0.5688586317166681 Bi
   0.8756631823890467    0.0399563121604167    0.4795310425214355 Bi
   0.8756631823890467    0.1308654030695076    0.4795310425214355 Bi
   0.8756631823890466    0.2217744939785985    0.4795310425214355 Bi
   0.8756631823890468    0.3126835848876895    0.4795310425214355 Bi
   0.8756631823890466    0.4035926757967804    0.4795310425214355 Bi
   0.8756631823890468    0.4945017667058713    0.4795310425214355 Bi
   0.8756631823890465    0.5854108576149621    0.4795310425214355 Bi
   0.8756631823890465    0.6763199485240531    0.4795310425214355 Bi
   0.8756631823890466    0.7672290394331440    0.4795310425214355 Bi
   0.8756631823890463    0.8581381303422350    0.4795310425214355 Bi
   0.8756631823890463    0.9490472212513259    0.4795310425214355 Bi
   0.3756631823890467    0.0854108576149621    0.4795310425214355 Bi
   0.3756631823890467    0.1763199485240530    0.4795310425214355 Bi
   0.3756631823890467    0.2672290394331440    0.4795310425214355 Bi
   0.3756631823890466    0.3581381303422349    0.4795310425214355 Bi
   0.3756631823890471    0.4490472212513259    0.4795310425214355 Bi
   0.3756631823890465    0.5399563121604166    0.4795310425214355 Bi
   0.3756631823890469    0.6308654030695078    0.4795310425214355 Bi
   0.3756631823890464    0.7217744939785987    0.4795310425214355 Bi
   0.3756631823890468    0.8126835848876895    0.4795310425214355 Bi
   0.3756631823890467    0.9035926757967806    0.4795310425214355 Bi
   0.3756631823890468    0.9945017667058713    0.4795310425214355 Bi
   0.3649964807883821    0.9999146800090969    0.1686817922364798 Se
   0.8649964807883821    0.9999146800090969    0.1686817922364798 Se
   0.5983298141217155    0.0665813466757635    0.1686817922364798 Se
   0.0983298141217154    0.0665813466757635    0.1686817922364798 Se
   0.8316631474550488    0.1332480133424302    0.1686817922364798 Se
   0.3316631474550487    0.1332480133424302    0.1686817922364798 Se
   0.5649964807883820    0.1999146800090969    0.1686817922364798 Se
   0.0649964807883819    0.1999146800090968    0.1686817922364798 Se
   0.7983298141217153    0.2665813466757636    0.1686817922364798 Se
   0.2983298141217154    0.2665813466757636    0.1686817922364798 Se
   0.5316631474550485    0.3332480133424302    0.1686817922364798 Se
   0.0316631474550486    0.3332480133424302    0.1686817922364798 Se
   0.7649964807883819    0.3999146800090969    0.1686817922364798 Se
   0.2649964807883817    0.3999146800090969    0.1686817922364798 Se
   0.4983298141217152    0.4665813466757635    0.1686817922364798 Se
   0.9983298141217154    0.4665813466757636    0.1686817922364798 Se
   0.7316631474550486    0.5332480133424302    0.1686817922364798 Se
   0.2316631474550486    0.5332480133424303    0.1686817922364798 Se
   0.4649964807883820    0.5999146800090969    0.1686817922364798 Se
   0.9649964807883821    0.5999146800090969    0.1686817922364798 Se
   0.6983298141217154    0.6665813466757634    0.1686817922364798 Se
   0.1983298141217152    0.6665813466757634    0.1686817922364798 Se
   0.4316631474550489    0.7332480133424301    0.1686817922364798 Se
   0.9316631474550486    0.7332480133424301    0.1686817922364798 Se
   0.6649964807883825    0.7999146800090969    0.1686817922364798 Se
   0.1649964807883809    0.7999146800090970    0.1686817922364798 Se
   0.3983298141217156    0.8665813466757636    0.1686817922364798 Se
   0.8983298141217152    0.8665813466757636    0.1686817922364798 Se
   0.6316631474550480    0.9332480133424301    0.1686817922364798 Se
   0.1316631474550485    0.9332480133424301    0.1686817922364798 Se
   0.1207242900680868    0.9774703145668532    0.3069115334886654 Se
   0.6207242900680868    0.9774703145668532    0.3069115334886654 Se
   0.3540576234014201    0.0441369812335198    0.3069115334886654 Se
   0.8540576234014201    0.0441369812335199    0.3069115334886654 Se
   0.5873909567347536    0.1108036479001865    0.3069115334886654 Se
   0.0873909567347535    0.1108036479001865    0.3069115334886654 Se
   0.3207242900680867    0.1774703145668532    0.3069115334886654 Se
   0.8207242900680869    0.1774703145668532    0.3069115334886655 Se
   0.5540576234014203    0.2441369812335199    0.3069115334886655 Se
   0.0540576234014201    0.2441369812335199    0.3069115334886654 Se
   0.2873909567347535    0.3108036479001866    0.3069115334886655 Se
   0.7873909567347532    0.3108036479001864    0.3069115334886655 Se
   0.5207242900680871    0.3774703145668533    0.3069115334886654 Se
   0.0207242900680870    0.3774703145668532    0.3069115334886655 Se
   0.2540576234014199    0.4441369812335198    0.3069115334886654 Se
   0.7540576234014202    0.4441369812335199    0.3069115334886654 Se
   0.4873909567347534    0.5108036479001866    0.3069115334886654 Se
   0.9873909567347534    0.5108036479001865    0.3069115334886654 Se
   0.2207242900680864    0.5774703145668532    0.3069115334886654 Se
   0.7207242900680870    0.5774703145668532    0.3069115334886654 Se
   0.4540576234014203    0.6441369812335199    0.3069115334886654 Se
   0.9540576234014200    0.6441369812335197    0.3069115334886654 Se
   0.1873909567347533    0.7108036479001865    0.3069115334886654 Se
   0.6873909567347537    0.7108036479001866    0.3069115334886654 Se
   0.4207242900680869    0.7774703145668533    0.3069115334886654 Se
   0.9207242900680858    0.7774703145668533    0.3069115334886654 Se
   0.1540576234014205    0.8441369812335200    0.3069115334886654 Se
   0.6540576234014199    0.8441369812335200    0.3069115334886654 Se
   0.3873909567347533    0.9108036479001865    0.3069115334886654 Se
   0.8873909567347533    0.9108036479001865    0.3069115334886654 Se
   0.3649578416567542    0.9998917571470686    0.2443510399711945 Se
   0.8649578416567540    0.9998917571470686    0.2443510399711945 Se
   0.5982911749900873    0.0665584238137352    0.2443510399711945 Se
   0.0982911749900874    0.0665584238137352    0.2443510399711945 Se
   0.8316245083234205    0.1332250904804019    0.2443510399711945 Se
   0.3316245083234207    0.1332250904804019    0.2443510399711945 Se
   0.5649578416567541    0.1998917571470686    0.2443510399711945 Se
   0.0649578416567538    0.1998917571470686    0.2443510399711945 Se
   0.7982911749900874    0.2665584238137352    0.2443510399711945 Se
   0.2982911749900874    0.2665584238137352    0.2443510399711945 Se
   0.5316245083234209    0.3332250904804019    0.2443510399711945 Se
   0.0316245083234204    0.3332250904804019    0.2443510399711945 Se
   0.7649578416567540    0.3998917571470686    0.2443510399711945 Se
   0.2649578416567537    0.3998917571470685    0.2443510399711945 Se
   0.4982911749900874    0.4665584238137352    0.2443510399711945 Se
   0.9982911749900871    0.4665584238137352    0.2443510399711945 Se
   0.7316245083234204    0.5332250904804020    0.2443510399711945 Se
   0.2316245083234205    0.5332250904804019    0.2443510399711945 Se
   0.4649578416567540    0.5998917571470687    0.2443510399711945 Se
   0.9649578416567539    0.5998917571470687    0.2443510399711945 Se
   0.6982911749900880    0.6665584238137352    0.2443510399711945 Se
   0.1982911749900874    0.6665584238137352    0.2443510399711945 Se
   0.4316245083234206    0.7332250904804019    0.2443510399711945 Se
   0.9316245083234207    0.7332250904804020    0.2443510399711945 Se
   0.6649578416567532    0.7998917571470685    0.2443510399711945 Se
   0.1649578416567533    0.7998917571470685    0.2443510399711945 Se
   0.3982911749900868    0.8665584238137352    0.2443510399711945 Se
   0.8982911749900867    0.8665584238137352    0.2443510399711945 Se
   0.6316245083234200    0.9332250904804019    0.2443510399711945 Se
   0.1316245083234205    0.9332250904804017    0.2443510399711945 Se
   0.1206617710889270    0.9774492436876565    0.3825808312104175 Se
   0.6206617710889271    0.9774492436876565    0.3825808312104175 Se
   0.3539951044222604    0.0441159103543232    0.3825808312104175 Se
   0.8539951044222602    0.0441159103543232    0.3825808312104175 Se
   0.5873284377555935    0.1107825770209898    0.3825808312104175 Se
   0.0873284377555937    0.1107825770209899    0.3825808312104175 Se
   0.3206617710889269    0.1774492436876565    0.3825808312104175 Se
   0.8206617710889269    0.1774492436876565    0.3825808312104175 Se
   0.5539951044222601    0.2441159103543232    0.3825808312104175 Se
   0.0539951044222606    0.2441159103543232    0.3825808312104175 Se
   0.2873284377555935    0.3107825770209898    0.3825808312104175 Se
   0.7873284377555937    0.3107825770209898    0.3825808312104175 Se
   0.5206617710889272    0.3774492436876566    0.3825808312104175 Se
   0.0206617710889267    0.3774492436876566    0.3825808312104175 Se
   0.2539951044222606    0.4441159103543231    0.3825808312104175 Se
   0.7539951044222601    0.4441159103543231    0.3825808312104175 Se
   0.4873284377555939    0.5107825770209898    0.3825808312104175 Se
   0.9873284377555931    0.5107825770209898    0.3825808312104175 Se
   0.2206617710889268    0.5774492436876564    0.3825808312104176 Se
   0.7206617710889273    0.5774492436876567    0.3825808312104176 Se
   0.4539951044222603    0.6441159103543233    0.3825808312104176 Se
   0.9539951044222599    0.6441159103543231    0.3825808312104176 Se
   0.1873284377555941    0.7107825770209898    0.3825808312104176 Se
   0.6873284377555936    0.7107825770209899    0.3825808312104176 Se
   0.4206617710889262    0.7774492436876568    0.3825808312104176 Se
   0.9206617710889262    0.7774492436876564    0.3825808312104176 Se
   0.1539951044222606    0.8441159103543233    0.3825808312104176 Se
   0.6539951044222602    0.8441159103543234    0.3825808312104176 Se
   0.3873284377555937    0.9107825770209900    0.3825808312104176 Se
   0.8873284377555943    0.9107825770209899    0.3825808312104176 Se
   0.2228990446849938    0.9492613082432543    0.8313182077635202 Se
   0.2228990446849936    0.0401703991523452    0.8313182077635203 Se
   0.2228990446849935    0.1310794900614362    0.8313182077635203 Se
   0.2228990446849937    0.2219885809705270    0.8313182077635203 Se
   0.2228990446849934    0.3128976718796179    0.8313182077635203 Se
   0.2228990446849936    0.4038067627887089    0.8313182077635203 Se
   0.2228990446849931    0.4947158536977997    0.8313182077635203 Se
   0.2228990446849933    0.5856249446068906    0.8313182077635203 Se
   0.2228990446849929    0.6765340355159816    0.8313182077635203 Se
   0.2228990446849937    0.7674431264250724    0.8313182077635203 Se
   0.2228990446849937    0.8583522173341633    0.8313182077635203 Se
   0.7228990446849937    0.9947158536977998    0.8313182077635203 Se
   0.7228990446849934    0.0856249446068906    0.8313182077635203 Se
   0.7228990446849937    0.1765340355159816    0.8313182077635203 Se
   0.7228990446849937    0.2674431264250725    0.8313182077635203 Se
   0.7228990446849937    0.3583522173341634    0.8313182077635203 Se
   0.7228990446849932    0.4492613082432543    0.8313182077635203 Se
   0.7228990446849936    0.5401703991523453    0.8313182077635203 Se
   0.7228990446849930    0.6310794900614363    0.8313182077635203 Se
   0.7228990446849936    0.7219885809705270    0.8313182077635203 Se
   0.7228990446849932    0.8128976718796179    0.8313182077635202 Se
   0.7228990446849932    0.9038067627887090    0.8313182077635202 Se
   0.8862994452865247    0.0408025116031545    0.7495056388254162 Se
   0.8862994452865246    0.1317116025122454    0.7495056388254162 Se
   0.8862994452865244    0.2226206934213363    0.7495056388254162 Se
   0.8862994452865245    0.3135297843304273    0.7495056388254162 Se
   0.8862994452865245    0.4044388752395181    0.7495056388254162 Se
   0.8862994452865240    0.4953479661486090    0.7495056388254162 Se
   0.8862994452865245    0.5862570570577000    0.7495056388254162 Se
   0.8862994452865240    0.6771661479667908    0.7495056388254162 Se
   0.8862994452865240    0.7680752388758817    0.7495056388254162 Se
   0.8862994452865250    0.8589843297849726    0.7495056388254162 Se
   0.8862994452865245    0.9498934206940637    0.7495056388254161 Se
   0.3862994452865248    0.0862570570576999    0.7495056388254162 Se
   0.3862994452865250    0.1771661479667909    0.7495056388254162 Se
   0.3862994452865249    0.2680752388758819    0.7495056388254162 Se
   0.3862994452865246    0.3589843297849726    0.7495056388254162 Se
   0.3862994452865248    0.4498934206940636    0.7495056388254162 Se
   0.3862994452865250    0.5408025116031545    0.7495056388254162 Se
   0.3862994452865247    0.6317116025122455    0.7495056388254162 Se
   0.3862994452865250    0.7226206934213364    0.7495056388254162 Se
   0.3862994452865253    0.8135297843304273    0.7495056388254162 Se
   0.3862994452865246    0.9044388752395180    0.7495056388254161 Se
   0.3862994452865246    0.9953479661486091    0.7495056388254162 Se
   0.0525679329444642    0.9950713762773904    0.6677845033197066 Se
   0.0525679329444642    0.0859804671864813    0.6677845033197066 Se
   0.0525679329444642    0.1768895580955722    0.6677845033197066 Se
   0.0525679329444641    0.2677986490046631    0.6677845033197066 Se
   0.0525679329444639    0.3587077399137540    0.6677845033197066 Se
   0.0525679329444645    0.4496168308228450    0.6677845033197066 Se
   0.0525679329444642    0.5405259217319359    0.6677845033197066 Se
   0.0525679329444638    0.6314350126410267    0.6677845033197067 Se
   0.0525679329444642    0.7223441035501177    0.6677845033197067 Se
   0.0525679329444644    0.8132531944592086    0.6677845033197067 Se
   0.0525679329444644    0.9041622853682995    0.6677845033197066 Se
   0.5525679329444642    0.0405259217319358    0.6677845033197066 Se
   0.5525679329444642    0.1314350126410267    0.6677845033197066 Se
   0.5525679329444642    0.2223441035501176    0.6677845033197066 Se
   0.5525679329444643    0.3132531944592085    0.6677845033197066 Se
   0.5525679329444642    0.4041622853682995    0.6677845033197066 Se
   0.5525679329444642    0.4950713762773903    0.6677845033197066 Se
   0.5525679329444648    0.5859804671864812    0.6677845033197067 Se
   0.5525679329444650    0.6768895580955723    0.6677845033197067 Se
   0.5525679329444642    0.7677986490046630    0.6677845033197067 Se
   0.5525679329444642    0.8587077399137539    0.6677845033197066 Se
   0.5525679329444642    0.9496168308228450    0.6677845033197066 Se
   0.8760524634314935    0.0400231505165926    0.6055580957863086 Se
   0.8760524634314935    0.1309322414256835    0.6055580957863086 Se
   0.8760524634314932    0.2218413323347743    0.6055580957863086 Se
   0.8760524634314935    0.3127504232438653    0.6055580957863086 Se
   0.8760524634314937    0.4036595141529563    0.6055580957863086 Se
   0.8760524634314935    0.4945686050620473    0.6055580957863086 Se
   0.8760524634314932    0.5854776959711380    0.6055580957863086 Se
   0.8760524634314928    0.6763867868802289    0.6055580957863087 Se
   0.8760524634314939    0.7672958777893200    0.6055580957863087 Se
   0.8760524634314930    0.8582049686984109    0.6055580957863087 Se
   0.8760524634314930    0.9491140596075016    0.6055580957863086 Se
   0.3760524634314936    0.0854776959711380    0.6055580957863086 Se
   0.3760524634314935    0.1763867868802289    0.6055580957863086 Se
   0.3760524634314938    0.2672958777893198    0.6055580957863086 Se
   0.3760524634314935    0.3582049686984108    0.6055580957863086 Se
   0.3760524634314934    0.4491140596075016    0.6055580957863086 Se
   0.3760524634314935    0.5400231505165926    0.6055580957863087 Se
   0.3760524634314938    0.6309322414256836    0.6055580957863087 Se
   0.3760524634314940    0.7218413323347743    0.6055580957863087 Se
   0.3760524634314929    0.8127504232438654    0.6055580957863087 Se
   0.3760524634314931    0.9036595141529562    0.6055580957863086 Se
   0.3760524634314935    0.9945686050620470    0.6055580957863086 Se
   0.0429093808583357    0.9941391934728648    0.5241890951556734 Se
   0.0429093808583356    0.0850482843819557    0.5241890951556734 Se
   0.0429093808583356    0.1759573752910466    0.5241890951556734 Se
   0.0429093808583357    0.2668664662001375    0.5241890951556734 Se
   0.0429093808583358    0.3577755571092285    0.5241890951556734 Se
   0.0429093808583361    0.4486846480183194    0.5241890951556734 Se
   0.0429093808583354    0.5395937389274104    0.5241890951556734 Se
   0.0429093808583355    0.6305028298365011    0.5241890951556734 Se
   0.0429093808583354    0.7214119207455922    0.5241890951556734 Se
   0.0429093808583353    0.8123210116546832    0.5241890951556734 Se
   0.0429093808583357    0.9032301025637740    0.5241890951556732 Se
   0.5429093808583358    0.0395937389274102    0.5241890951556734 Se
   0.5429093808583356    0.1305028298365011    0.5241890951556734 Se
   0.5429093808583357    0.2214119207455921    0.5241890951556734 Se
   0.5429093808583356    0.3123210116546830    0.5241890951556734 Se
   0.5429093808583360    0.4032301025637739    0.5241890951556734 Se
   0.5429093808583357    0.4941391934728648    0.5241890951556734 Se
   0.5429093808583361    0.5850482843819558    0.5241890951556734 Se
   0.5429093808583361    0.6759573752910468    0.5241890951556734 Se
   0.5429093808583360    0.7668664662001375    0.5241890951556734 Se
   0.5429093808583360    0.8577755571092287    0.5241890951556732 Se
   0.5429093808583357    0.9486846480183194    0.5241890951556732 Se
   0.2111486662123546    0.9485087818390132    0.4427015086099987 Se
   0.2111486662123548    0.0394178727481041    0.4427015086099987 Se
   0.2111486662123547    0.1303269636571951    0.4427015086099987 Se
   0.2111486662123548    0.2212360545662860    0.4427015086099987 Se
   0.2111486662123545    0.3121451454753769    0.4427015086099987 Se
   0.2111486662123545    0.4030542363844677    0.4427015086099987 Se
   0.2111486662123541    0.4939633272935586    0.4427015086099987 Se
   0.2111486662123544    0.5848724182026495    0.4427015086099987 Se
   0.2111486662123544    0.6757815091117404    0.4427015086099987 Se
   0.2111486662123543    0.7666906000208316    0.4427015086099987 Se
   0.2111486662123550    0.8575996909299223    0.4427015086099987 Se
   0.7111486662123551    0.9939633272935586    0.4427015086099987 Se
   0.7111486662123548    0.0848724182026496    0.4427015086099987 Se
   0.7111486662123552    0.1757815091117405    0.4427015086099987 Se
   0.7111486662123547    0.2666906000208315    0.4427015086099987 Se
   0.7111486662123548    0.3575996909299223    0.4427015086099987 Se
   0.7111486662123546    0.4485087818390132    0.4427015086099987 Se
   0.7111486662123546    0.5394178727481042    0.4427015086099987 Se
   0.7111486662123544    0.6303269636571951    0.4427015086099987 Se
   0.7111486662123545    0.7212360545662860    0.4427015086099987 Se
   0.7111486662123545    0.8121451454753770    0.4427015086099987 Se
   0.7111486662123545    0.9030542363844677    0.4427015086099987 Se
