Nb144 Bi200 Se588
1.0
  15.0973550219618300    0.0000000000000000    0.0000000000000009
   6.3567810649140490   49.5462049720267217    0.0000000000000031
   0.0000000000000000    0.0000000000000000   49.9893053307188922
Nb Bi Se
144 200 588
direct
   0.7046411487882048    0.8180244909829054    0.3566429020965912 Nb
   0.6490855932326487    0.8874689354273499    0.3566429020965912 Nb
   0.5935300376770930    0.9569133798717945    0.3566429020965912 Nb
   0.7046411487882049    0.5680244909829054    0.3566429020965913 Nb
   0.6490855932326494    0.6374689354273499    0.3566429020965913 Nb
   0.5935300376770933    0.7069133798717944    0.3566429020965913 Nb
   0.5379744821215382    0.7763578243162389    0.3566429020965912 Nb
   0.4824189265659823    0.8458022687606834    0.3566429020965912 Nb
   0.4268633710104267    0.9152467132051277    0.3566429020965912 Nb
   0.3713078154548712    0.9846911576495722    0.3566429020965912 Nb
   0.7046411487882048    0.3180244909829054    0.3566429020965912 Nb
   0.6490855932326495    0.3874689354273499    0.3566429020965912 Nb
   0.5935300376770939    0.4569133798717944    0.3566429020965912 Nb
   0.5379744821215380    0.5263578243162389    0.3566429020965912 Nb
   0.4824189265659825    0.5958022687606832    0.3566429020965913 Nb
   0.4268633710104272    0.6652467132051278    0.3566429020965913 Nb
   0.3713078154548713    0.7346911576495723    0.3566429020965913 Nb
   0.3157522598993159    0.8041356020940166    0.3566429020965913 Nb
   0.2601967043437606    0.8735800465384610    0.3566429020965912 Nb
   0.2046411487882047    0.9430244909829055    0.3566429020965912 Nb
   0.7046411487882046    0.0680244909829054    0.3566429020965912 Nb
   0.6490855932326492    0.1374689354273499    0.3566429020965912 Nb
   0.5935300376770936    0.2069133798717943    0.3566429020965912 Nb
   0.5379744821215380    0.2763578243162387    0.3566429020965912 Nb
   0.4824189265659826    0.3458022687606833    0.3566429020965912 Nb
   0.4268633710104270    0.4152467132051276    0.3566429020965912 Nb
   0.3713078154548715    0.4846911576495722    0.3566429020965912 Nb
   0.3157522598993159    0.5541356020940167    0.3566429020965912 Nb
   0.2601967043437604    0.6235800465384610    0.3566429020965913 Nb
   0.2046411487882049    0.6930244909829055    0.3566429020965913 Nb
   0.1490855932326492    0.7624689354273499    0.3566429020965913 Nb
   0.0935300376770936    0.8319133798717945    0.3566429020965913 Nb
   0.0379744821215379    0.9013578243162390    0.3566429020965913 Nb
   0.9824189265659826    0.9708022687606832    0.3566429020965912 Nb
   0.5379744821215381    0.0263578243162387    0.3566429020965912 Nb
   0.4824189265659825    0.0958022687606832    0.3566429020965912 Nb
   0.4268633710104268    0.1652467132051276    0.3566429020965912 Nb
   0.3713078154548714    0.2346911576495721    0.3566429020965912 Nb
   0.3157522598993158    0.3041356020940166    0.3566429020965912 Nb
   0.2601967043437602    0.3735800465384609    0.3566429020965912 Nb
   0.2046411487882048    0.4430244909829055    0.3566429020965912 Nb
   0.1490855932326493    0.5124689354273501    0.3566429020965912 Nb
   0.0935300376770939    0.5819133798717944    0.3566429020965912 Nb
   0.0379744821215382    0.6513578243162387    0.3566429020965912 Nb
   0.9824189265659826    0.7208022687606834    0.3566429020965913 Nb
   0.9268633710104272    0.7902467132051278    0.3566429020965913 Nb
   0.8713078154548716    0.8596911576495722    0.3566429020965912 Nb
   0.8157522598993155    0.9291356020940167    0.3566429020965912 Nb
   0.3157522598993160    0.0541356020940165    0.3566429020965912 Nb
   0.2601967043437603    0.1235800465384609    0.3566429020965912 Nb
   0.2046411487882047    0.1930244909829054    0.3566429020965912 Nb
   0.1490855932326492    0.2624689354273499    0.3566429020965912 Nb
   0.0935300376770937    0.3319133798717943    0.3566429020965912 Nb
   0.0379744821215381    0.4013578243162387    0.3566429020965912 Nb
   0.9824189265659828    0.4708022687606832    0.3566429020965912 Nb
   0.9268633710104273    0.5402467132051276    0.3566429020965912 Nb
   0.8713078154548717    0.6096911576495722    0.3566429020965913 Nb
   0.8157522598993161    0.6791356020940167    0.3566429020965912 Nb
   0.7601967043437601    0.7485800465384610    0.3566429020965912 Nb
   0.1490855932326492    0.0124689354273498    0.3566429020965912 Nb
   0.0935300376770936    0.0819133798717943    0.3566429020965912 Nb
   0.0379744821215382    0.1513578243162387    0.3566429020965912 Nb
   0.9824189265659825    0.2208022687606832    0.3566429020965912 Nb
   0.9268633710104269    0.2902467132051276    0.3566429020965912 Nb
   0.8713078154548715    0.3596911576495721    0.3566429020965912 Nb
   0.8157522598993157    0.4291356020940165    0.3566429020965912 Nb
   0.7601967043437603    0.4985800465384611    0.3566429020965913 Nb
   0.9268633710104269    0.0402467132051276    0.3566429020965912 Nb
   0.8713078154548715    0.1096911576495721    0.3566429020965912 Nb
   0.8157522598993159    0.1791356020940165    0.3566429020965912 Nb
   0.7601967043437603    0.2485800465384610    0.3566429020965912 Nb
   0.7601967043437603    0.9985800465384610    0.3566429020965912 Nb
   0.7039929435379948    0.8180216097091410    0.2336917587878816 Nb
   0.6484373879824396    0.8874660541535853    0.2336917587878816 Nb
   0.5928818324268839    0.9569104985980298    0.2336917587878816 Nb
   0.7039929435379948    0.5680216097091408    0.2336917587878816 Nb
   0.6484373879824392    0.6374660541535851    0.2336917587878816 Nb
   0.5928818324268835    0.7069104985980296    0.2336917587878815 Nb
   0.5373262768713283    0.7763549430424740    0.2336917587878815 Nb
   0.4817707213157727    0.8457993874869185    0.2336917587878815 Nb
   0.4262151657602170    0.9152438319313630    0.2336917587878816 Nb
   0.3706596102046618    0.9846882763758075    0.2336917587878816 Nb
   0.7039929435379949    0.3180216097091407    0.2336917587878816 Nb
   0.6484373879824393    0.3874660541535851    0.2336917587878816 Nb
   0.5928818324268835    0.4569104985980296    0.2336917587878816 Nb
   0.5373262768713278    0.5263549430424740    0.2336917587878816 Nb
   0.4817707213157723    0.5957993874869185    0.2336917587878816 Nb
   0.4262151657602170    0.6652438319313629    0.2336917587878816 Nb
   0.3706596102046615    0.7346882763758075    0.2336917587878816 Nb
   0.3151040546491060    0.8041327208202517    0.2336917587878815 Nb
   0.2595484990935505    0.8735771652646962    0.2336917587878815 Nb
   0.2039929435379948    0.9430216097091406    0.2336917587878815 Nb
   0.7039929435379947    0.0680216097091407    0.2336917587878816 Nb
   0.6484373879824392    0.1374660541535852    0.2336917587878815 Nb
   0.5928818324268835    0.2069104985980296    0.2336917587878815 Nb
   0.5373262768713279    0.2763549430424740    0.2336917587878816 Nb
   0.4817707213157724    0.3457993874869185    0.2336917587878816 Nb
   0.4262151657602169    0.4152438319313630    0.2336917587878816 Nb
   0.3706596102046613    0.4846882763758074    0.2336917587878816 Nb
   0.3151040546491058    0.5541327208202518    0.2336917587878816 Nb
   0.2595484990935502    0.6235771652646963    0.2336917587878816 Nb
   0.2039929435379949    0.6930216097091408    0.2336917587878816 Nb
   0.1484373879824391    0.7624660541535850    0.2336917587878816 Nb
   0.0928818324268837    0.8319104985980296    0.2336917587878816 Nb
   0.0373262768713280    0.9013549430424741    0.2336917587878815 Nb
   0.9817707213157727    0.9707993874869184    0.2336917587878815 Nb
   0.5373262768713282    0.0263549430424740    0.2336917587878816 Nb
   0.4817707213157726    0.0957993874869184    0.2336917587878816 Nb
   0.4262151657602170    0.1652438319313629    0.2336917587878816 Nb
   0.3706596102046613    0.2346882763758074    0.2336917587878815 Nb
   0.3151040546491059    0.3041327208202518    0.2336917587878815 Nb
   0.2595484990935501    0.3735771652646963    0.2336917587878816 Nb
   0.2039929435379946    0.4430216097091407    0.2336917587878816 Nb
   0.1484373879824395    0.5124660541535853    0.2336917587878816 Nb
   0.0928818324268836    0.5819104985980296    0.2336917587878816 Nb
   0.0373262768713281    0.6513549430424740    0.2336917587878816 Nb
   0.9817707213157726    0.7207993874869185    0.2336917587878816 Nb
   0.9262151657602171    0.7902438319313630    0.2336917587878816 Nb
   0.8706596102046620    0.8596882763758075    0.2336917587878816 Nb
   0.8151040546491057    0.9291327208202518    0.2336917587878816 Nb
   0.3151040546491059    0.0541327208202517    0.2336917587878816 Nb
   0.2595484990935503    0.1235771652646962    0.2336917587878816 Nb
   0.2039929435379949    0.1930216097091406    0.2336917587878816 Nb
   0.1484373879824393    0.2624660541535850    0.2336917587878815 Nb
   0.0928818324268838    0.3319104985980296    0.2336917587878815 Nb
   0.0373262768713282    0.4013549430424740    0.2336917587878815 Nb
   0.9817707213157727    0.4707993874869184    0.2336917587878816 Nb
   0.9262151657602171    0.5402438319313628    0.2336917587878816 Nb
   0.8706596102046615    0.6096882763758074    0.2336917587878816 Nb
   0.8151040546491060    0.6791327208202519    0.2336917587878815 Nb
   0.7595484990935505    0.7485771652646961    0.2336917587878815 Nb
   0.1484373879824392    0.0124660541535851    0.2336917587878816 Nb
   0.0928818324268838    0.0819104985980295    0.2336917587878816 Nb
   0.0373262768713281    0.1513549430424739    0.2336917587878816 Nb
   0.9817707213157725    0.2207993874869184    0.2336917587878816 Nb
   0.9262151657602169    0.2902438319313629    0.2336917587878816 Nb
   0.8706596102046618    0.3596882763758075    0.2336917587878816 Nb
   0.8151040546491058    0.4291327208202518    0.2336917587878816 Nb
   0.7595484990935505    0.4985771652646963    0.2336917587878816 Nb
   0.9262151657602170    0.0402438319313628    0.2336917587878816 Nb
   0.8706596102046614    0.1096882763758073    0.2336917587878815 Nb
   0.8151040546491060    0.1791327208202518    0.2336917587878815 Nb
   0.7595484990935506    0.2485771652646963    0.2336917587878816 Nb
   0.7595484990935503    0.9985771652646962    0.2336917587878816 Nb
   0.3659847177950750    0.8680327924139237    0.7671208852038272 Bi
   0.6259847177950753    0.8880327924139236    0.7671208852038272 Bi
   0.8859847177950748    0.9080327924139235    0.7671208852038270 Bi
   0.3259847177950750    0.7880327924139238    0.7671208852038272 Bi
   0.5859847177950749    0.8080327924139238    0.7671208852038272 Bi
   0.8459847177950751    0.8280327924139236    0.7671208852038272 Bi
   0.1059847177950749    0.8480327924139237    0.7671208852038272 Bi
   0.2859847177950749    0.7080327924139237    0.7671208852038272 Bi
   0.5459847177950750    0.7280327924139238    0.7671208852038272 Bi
   0.8059847177950751    0.7480327924139236    0.7671208852038272 Bi
   0.0659847177950749    0.7680327924139237    0.7671208852038272 Bi
   0.2459847177950748    0.6280327924139237    0.7671208852038272 Bi
   0.5059847177950747    0.6480327924139234    0.7671208852038272 Bi
   0.7659847177950748    0.6680327924139234    0.7671208852038272 Bi
   0.0259847177950749    0.6880327924139239    0.7671208852038272 Bi
   0.2059847177950749    0.5480327924139238    0.7671208852038272 Bi
   0.4659847177950749    0.5680327924139235    0.7671208852038272 Bi
   0.7259847177950749    0.5880327924139238    0.7671208852038272 Bi
   0.9859847177950750    0.6080327924139237    0.7671208852038272 Bi
   0.1659847177950749    0.4680327924139239    0.7671208852038272 Bi
   0.4259847177950750    0.4880327924139237    0.7671208852038272 Bi
   0.6859847177950750    0.5080327924139237    0.7671208852038272 Bi
   0.9459847177950751    0.5280327924139239    0.7671208852038272 Bi
   0.3859847177950748    0.4080327924139237    0.7671208852038272 Bi
   0.6459847177950748    0.4280327924139238    0.7671208852038272 Bi
   0.9059847177950752    0.4480327924139238    0.7671208852038272 Bi
   0.3459847177950748    0.3280327924139237    0.7671208852038272 Bi
   0.6059847177950749    0.3480327924139238    0.7671208852038272 Bi
   0.8659847177950748    0.3680327924139237    0.7671208852038272 Bi
   0.1259847177950747    0.3880327924139238    0.7671208852038272 Bi
   0.3059847177950749    0.2480327924139238    0.7671208852038272 Bi
   0.5659847177950750    0.2680327924139238    0.7671208852038272 Bi
   0.8259847177950750    0.2880327924139238    0.7671208852038272 Bi
   0.0859847177950752    0.3080327924139238    0.7671208852038272 Bi
   0.2659847177950749    0.1680327924139238    0.7671208852038272 Bi
   0.5259847177950747    0.1880327924139238    0.7671208852038272 Bi
   0.7859847177950749    0.2080327924139238    0.7671208852038272 Bi
   0.0459847177950751    0.2280327924139237    0.7671208852038272 Bi
   0.2259847177950749    0.0880327924139239    0.7671208852038270 Bi
   0.4859847177950748    0.1080327924139238    0.7671208852038272 Bi
   0.7459847177950749    0.1280327924139239    0.7671208852038272 Bi
   0.0059847177950748    0.1480327924139238    0.7671208852038270 Bi
   0.1859847177950749    0.0080327924139239    0.7671208852038270 Bi
   0.4459847177950748    0.0280327924139239    0.7671208852038270 Bi
   0.7059847177950750    0.0480327924139238    0.7671208852038272 Bi
   0.9659847177950750    0.0680327924139239    0.7671208852038270 Bi
   0.1459847177950750    0.9280327924139237    0.7671208852038272 Bi
   0.4059847177950749    0.9480327924139238    0.7671208852038272 Bi
   0.6659847177950750    0.9680327924139238    0.7671208852038270 Bi
   0.9259847177950750    0.9880327924139238    0.7671208852038270 Bi
   0.3057233008918756    0.9154134605952203    0.6873709670584137 Bi
   0.5657233008918754    0.9354134605952202    0.6873709670584138 Bi
   0.8257233008918756    0.9554134605952203    0.6873709670584138 Bi
   0.2657233008918755    0.8354134605952204    0.6873709670584137 Bi
   0.5257233008918756    0.8554134605952204    0.6873709670584137 Bi
   0.7857233008918757    0.8754134605952202    0.6873709670584138 Bi
   0.0457233008918756    0.8954134605952203    0.6873709670584137 Bi
   0.2257233008918754    0.7554134605952203    0.6873709670584137 Bi
   0.4857233008918757    0.7754134605952204    0.6873709670584137 Bi
   0.7457233008918758    0.7954134605952202    0.6873709670584137 Bi
   0.0057233008918755    0.8154134605952202    0.6873709670584137 Bi
   0.1857233008918756    0.6754134605952203    0.6873709670584137 Bi
   0.4457233008918754    0.6954134605952201    0.6873709670584137 Bi
   0.7057233008918754    0.7154134605952202    0.6873709670584137 Bi
   0.9657233008918755    0.7354134605952203    0.6873709670584137 Bi
   0.1457233008918755    0.5954134605952204    0.6873709670584137 Bi
   0.4057233008918753    0.6154134605952203    0.6873709670584137 Bi
   0.6657233008918757    0.6354134605952204    0.6873709670584137 Bi
   0.9257233008918756    0.6554134605952203    0.6873709670584137 Bi
   0.1057233008918755    0.5154134605952204    0.6873709670584137 Bi
   0.3657233008918755    0.5354134605952204    0.6873709670584137 Bi
   0.6257233008918756    0.5554134605952205    0.6873709670584137 Bi
   0.8857233008918757    0.5754134605952206    0.6873709670584137 Bi
   0.3257233008918755    0.4554134605952203    0.6873709670584137 Bi
   0.5857233008918755    0.4754134605952202    0.6873709670584137 Bi
   0.8457233008918756    0.4954134605952203    0.6873709670584137 Bi
   0.2857233008918755    0.3754134605952203    0.6873709670584137 Bi
   0.5457233008918755    0.3954134605952204    0.6873709670584137 Bi
   0.8057233008918755    0.4154134605952203    0.6873709670584137 Bi
   0.0657233008918753    0.4354134605952204    0.6873709670584137 Bi
   0.2457233008918755    0.2954134605952204    0.6873709670584137 Bi
   0.5057233008918756    0.3154134605952204    0.6873709670584137 Bi
   0.7657233008918755    0.3354134605952204    0.6873709670584137 Bi
   0.0257233008918755    0.3554134605952204    0.6873709670584137 Bi
   0.2057233008918754    0.2154134605952204    0.6873709670584137 Bi
   0.4657233008918756    0.2354134605952204    0.6873709670584137 Bi
   0.7257233008918753    0.2554134605952204    0.6873709670584137 Bi
   0.9857233008918754    0.2754134605952204    0.6873709670584137 Bi
   0.1657233008918755    0.1354134605952205    0.6873709670584137 Bi
   0.4257233008918754    0.1554134605952205    0.6873709670584137 Bi
   0.6857233008918755    0.1754134605952205    0.6873709670584137 Bi
   0.9457233008918754    0.1954134605952204    0.6873709670584137 Bi
   0.1257233008918754    0.0554134605952205    0.6873709670584137 Bi
   0.3857233008918756    0.0754134605952205    0.6873709670584137 Bi
   0.6457233008918754    0.0954134605952205    0.6873709670584137 Bi
   0.9057233008918756    0.1154134605952205    0.6873709670584137 Bi
   0.0857233008918754    0.9754134605952205    0.6873709670584137 Bi
   0.3457233008918754    0.9954134605952205    0.6873709670584137 Bi
   0.6057233008918753    0.0154134605952205    0.6873709670584137 Bi
   0.8657233008918755    0.0354134605952205    0.6873709670584137 Bi
   0.3015376564430978    0.9161174538232550    0.5665155440360311 Bi
   0.5615376564430977    0.9361174538232552    0.5665155440360311 Bi
   0.8215376564430980    0.9561174538232553    0.5665155440360311 Bi
   0.2615376564430977    0.8361174538232551    0.5665155440360311 Bi
   0.5215376564430977    0.8561174538232552    0.5665155440360311 Bi
   0.7815376564430979    0.8761174538232550    0.5665155440360311 Bi
   0.0415376564430977    0.8961174538232551    0.5665155440360311 Bi
   0.2215376564430977    0.7561174538232551    0.5665155440360311 Bi
   0.4815376564430978    0.7761174538232551    0.5665155440360311 Bi
   0.7415376564430979    0.7961174538232552    0.5665155440360311 Bi
   0.0015376564430975    0.8161174538232553    0.5665155440360311 Bi
   0.1815376564430977    0.6761174538232551    0.5665155440360311 Bi
   0.4415376564430978    0.6961174538232552    0.5665155440360311 Bi
   0.7015376564430975    0.7161174538232552    0.5665155440360311 Bi
   0.9615376564430976    0.7361174538232554    0.5665155440360311 Bi
   0.1415376564430976    0.5961174538232551    0.5665155440360311 Bi
   0.4015376564430976    0.6161174538232550    0.5665155440360311 Bi
   0.6615376564430977    0.6361174538232552    0.5665155440360311 Bi
   0.9215376564430978    0.6561174538232554    0.5665155440360311 Bi
   0.1015376564430977    0.5161174538232554    0.5665155440360311 Bi
   0.3615376564430977    0.5361174538232553    0.5665155440360311 Bi
   0.6215376564430978    0.5561174538232553    0.5665155440360311 Bi
   0.8815376564430976    0.5761174538232555    0.5665155440360311 Bi
   0.3215376564430977    0.4561174538232555    0.5665155440360311 Bi
   0.5815376564430975    0.4761174538232554    0.5665155440360311 Bi
   0.8415376564430979    0.4961174538232555    0.5665155440360311 Bi
   0.2815376564430977    0.3761174538232555    0.5665155440360311 Bi
   0.5415376564430976    0.3961174538232554    0.5665155440360311 Bi
   0.8015376564430976    0.4161174538232553    0.5665155440360311 Bi
   0.0615376564430978    0.4361174538232553    0.5665155440360311 Bi
   0.2415376564430976    0.2961174538232554    0.5665155440360311 Bi
   0.5015376564430979    0.3161174538232555    0.5665155440360311 Bi
   0.7615376564430976    0.3361174538232553    0.5665155440360311 Bi
   0.0215376564430977    0.3561174538232553    0.5665155440360311 Bi
   0.2015376564430977    0.2161174538232554    0.5665155440360311 Bi
   0.4615376564430976    0.2361174538232554    0.5665155440360311 Bi
   0.7215376564430978    0.2561174538232553    0.5665155440360311 Bi
   0.9815376564430977    0.2761174538232554    0.5665155440360311 Bi
   0.1615376564430976    0.1361174538232554    0.5665155440360311 Bi
   0.4215376564430976    0.1561174538232554    0.5665155440360311 Bi
   0.6815376564430976    0.1761174538232554    0.5665155440360311 Bi
   0.9415376564430976    0.1961174538232554    0.5665155440360311 Bi
   0.1215376564430976    0.0561174538232555    0.5665155440360311 Bi
   0.3815376564430976    0.0761174538232555    0.5665155440360311 Bi
   0.6415376564430977    0.0961174538232554    0.5665155440360311 Bi
   0.9015376564430978    0.1161174538232554    0.5665155440360311 Bi
   0.0815376564430976    0.9761174538232554    0.5665155440360312 Bi
   0.3415376564430976    0.9961174538232554    0.5665155440360311 Bi
   0.6015376564430978    0.0161174538232555    0.5665155440360311 Bi
   0.8615376564430977    0.0361174538232555    0.5665155440360311 Bi
   0.2023426025377954    0.8831051605259105    0.4870641414761424 Bi
   0.4623426025377954    0.9031051605259107    0.4870641414761424 Bi
   0.7223426025377953    0.9231051605259106    0.4870641414761424 Bi
   0.1623426025377953    0.8031051605259105    0.4870641414761424 Bi
   0.4223426025377955    0.8231051605259107    0.4870641414761424 Bi
   0.6823426025377951    0.8431051605259106    0.4870641414761424 Bi
   0.9423426025377954    0.8631051605259105    0.4870641414761424 Bi
   0.1223426025377953    0.7231051605259107    0.4870641414761424 Bi
   0.3823426025377953    0.7431051605259109    0.4870641414761424 Bi
   0.6423426025377954    0.7631051605259106    0.4870641414761424 Bi
   0.9023426025377954    0.7831051605259107    0.4870641414761424 Bi
   0.0823426025377953    0.6431051605259105    0.4870641414761425 Bi
   0.3423426025377954    0.6631051605259105    0.4870641414761424 Bi
   0.6023426025377954    0.6831051605259106    0.4870641414761424 Bi
   0.8623426025377955    0.7031051605259108    0.4870641414761424 Bi
   0.0423426025377953    0.5631051605259106    0.4870641414761425 Bi
   0.3023426025377954    0.5831051605259105    0.4870641414761425 Bi
   0.5623426025377953    0.6031051605259109    0.4870641414761424 Bi
   0.8223426025377956    0.6231051605259108    0.4870641414761424 Bi
   0.0023426025377953    0.4831051605259107    0.4870641414761425 Bi
   0.2623426025377954    0.5031051605259109    0.4870641414761425 Bi
   0.5223426025377954    0.5231051605259108    0.4870641414761425 Bi
   0.7823426025377954    0.5431051605259107    0.4870641414761424 Bi
   0.2223426025377953    0.4231051605259107    0.4870641414761425 Bi
   0.4823426025377955    0.4431051605259106    0.4870641414761425 Bi
   0.7423426025377956    0.4631051605259108    0.4870641414761425 Bi
   0.1823426025377953    0.3431051605259108    0.4870641414761425 Bi
   0.4423426025377954    0.3631051605259107    0.4870641414761425 Bi
   0.7023426025377955    0.3831051605259108    0.4870641414761425 Bi
   0.9623426025377951    0.4031051605259107    0.4870641414761425 Bi
   0.1423426025377953    0.2631051605259107    0.4870641414761424 Bi
   0.4023426025377953    0.2831051605259108    0.4870641414761425 Bi
   0.6623426025377954    0.3031051605259107    0.4870641414761425 Bi
   0.9223426025377955    0.3231051605259107    0.4870641414761425 Bi
   0.1023426025377953    0.1831051605259108    0.4870641414761424 Bi
   0.3623426025377953    0.2031051605259108    0.4870641414761424 Bi
   0.6223426025377953    0.2231051605259108    0.4870641414761425 Bi
   0.8823426025377953    0.2431051605259108    0.4870641414761425 Bi
   0.0623426025377953    0.1031051605259108    0.4870641414761424 Bi
   0.3223426025377953    0.1231051605259107    0.4870641414761424 Bi
   0.5823426025377954    0.1431051605259108    0.4870641414761425 Bi
   0.8423426025377951    0.1631051605259107    0.4870641414761425 Bi
   0.0223426025377953    0.0231051605259108    0.4870641414761424 Bi
   0.2823426025377953    0.0431051605259108    0.4870641414761424 Bi
   0.5423426025377954    0.0631051605259108    0.4870641414761424 Bi
   0.8023426025377953    0.0831051605259108    0.4870641414761425 Bi
   0.9823426025377953    0.9431051605259108    0.4870641414761424 Bi
   0.2423426025377954    0.9631051605259106    0.4870641414761424 Bi
   0.5023426025377954    0.9831051605259108    0.4870641414761424 Bi
   0.7623426025377954    0.0031051605259108    0.4870641414761424 Bi
   0.7965697329599907    0.7856045696266464    0.2000427878291579 Se
   0.7410141774044352    0.8550490140710908    0.2000427878291579 Se
   0.6854586218488797    0.9244934585155350    0.2000427878291579 Se
   0.7965697329599910    0.5356045696266464    0.2000427878291579 Se
   0.7410141774044349    0.6050490140710907    0.2000427878291579 Se
   0.6854586218488794    0.6744934585155351    0.2000427878291579 Se
   0.6299030662933244    0.7439379029599796    0.2000427878291579 Se
   0.5743475107377688    0.8133823474044242    0.2000427878291579 Se
   0.5187919551822129    0.8828267918488684    0.2000427878291579 Se
   0.4632363996266572    0.9522712362933129    0.2000427878291579 Se
   0.7965697329599909    0.2856045696266463    0.2000427878291579 Se
   0.7410141774044355    0.3550490140710907    0.2000427878291579 Se
   0.6854586218488800    0.4244934585155352    0.2000427878291579 Se
   0.6299030662933245    0.4939379029599796    0.2000427878291579 Se
   0.5743475107377686    0.5633823474044239    0.2000427878291579 Se
   0.5187919551822133    0.6328267918488686    0.2000427878291579 Se
   0.4632363996266574    0.7022712362933131    0.2000427878291579 Se
   0.4076808440711019    0.7717156807377572    0.2000427878291579 Se
   0.3521252885155465    0.8411601251822018    0.2000427878291579 Se
   0.2965697329599906    0.9106045696266462    0.2000427878291579 Se
   0.7965697329599906    0.0356045696266462    0.2000427878291579 Se
   0.7410141774044352    0.1050490140710907    0.2000427878291579 Se
   0.6854586218488795    0.1744934585155351    0.2000427878291579 Se
   0.6299030662933240    0.2439379029599796    0.2000427878291579 Se
   0.5743475107377687    0.3133823474044241    0.2000427878291579 Se
   0.5187919551822131    0.3828267918488685    0.2000427878291579 Se
   0.4632363996266575    0.4522712362933129    0.2000427878291579 Se
   0.4076808440711022    0.5217156807377574    0.2000427878291579 Se
   0.3521252885155466    0.5911601251822017    0.2000427878291579 Se
   0.2965697329599908    0.6606045696266465    0.2000427878291579 Se
   0.2410141774044353    0.7300490140710908    0.2000427878291579 Se
   0.1854586218488797    0.7994934585155351    0.2000427878291579 Se
   0.1299030662933237    0.8689379029599796    0.2000427878291579 Se
   0.0743475107377686    0.9383823474044242    0.2000427878291579 Se
   0.6299030662933238    0.9939379029599795    0.2000427878291579 Se
   0.5743475107377686    0.0633823474044240    0.2000427878291579 Se
   0.5187919551822129    0.1328267918488684    0.2000427878291579 Se
   0.4632363996266575    0.2022712362933129    0.2000427878291579 Se
   0.4076808440711019    0.2717156807377574    0.2000427878291579 Se
   0.3521252885155463    0.3411601251822018    0.2000427878291579 Se
   0.2965697329599911    0.4106045696266462    0.2000427878291579 Se
   0.2410141774044354    0.4800490140710907    0.2000427878291579 Se
   0.1854586218488797    0.5494934585155351    0.2000427878291579 Se
   0.1299030662933244    0.6189379029599796    0.2000427878291579 Se
   0.0743475107377687    0.6883823474044242    0.2000427878291579 Se
   0.0187919551822131    0.7578267918488684    0.2000427878291579 Se
   0.9632363996266575    0.8272712362933128    0.2000427878291579 Se
   0.9076808440711021    0.8967156807377573    0.2000427878291579 Se
   0.4076808440711019    0.0217156807377573    0.2000427878291579 Se
   0.3521252885155463    0.0911601251822017    0.2000427878291579 Se
   0.2965697329599907    0.1606045696266462    0.2000427878291579 Se
   0.2410141774044353    0.2300490140710907    0.2000427878291579 Se
   0.1854586218488797    0.2994934585155351    0.2000427878291579 Se
   0.1299030662933242    0.3689379029599795    0.2000427878291579 Se
   0.0743475107377689    0.4383823474044239    0.2000427878291579 Se
   0.0187919551822132    0.5078267918488686    0.2000427878291579 Se
   0.9632363996266576    0.5772712362933129    0.2000427878291579 Se
   0.9076808440711018    0.6467156807377574    0.2000427878291579 Se
   0.8521252885155464    0.7161601251822017    0.2000427878291579 Se
   0.2410141774044352    0.9800490140710906    0.2000427878291579 Se
   0.1854586218488797    0.0494934585155351    0.2000427878291579 Se
   0.1299030662933242    0.1189379029599795    0.2000427878291579 Se
   0.0743475107377686    0.1883823474044239    0.2000427878291579 Se
   0.0187919551822130    0.2578267918488685    0.2000427878291579 Se
   0.9632363996266575    0.3272712362933128    0.2000427878291579 Se
   0.9076808440711019    0.3967156807377574    0.2000427878291579 Se
   0.8521252885155466    0.4661601251822018    0.2000427878291579 Se
   0.0187919551822130    0.0078267918488684    0.2000427878291579 Se
   0.9632363996266575    0.0772712362933128    0.2000427878291579 Se
   0.9076808440711016    0.1467156807377573    0.2000427878291579 Se
   0.8521252885155466    0.2161601251822018    0.2000427878291579 Se
   0.8521252885155467    0.9661601251822017    0.2000427878291579 Se
   0.8342676563797734    0.8226485357603324    0.3229896502366212 Se
   0.7787121008242173    0.8920929802047767    0.3229896502366212 Se
   0.7231565452686620    0.9615374246492210    0.3229896502366212 Se
   0.8342676563797728    0.5726485357603321    0.3229896502366212 Se
   0.7787121008242169    0.6420929802047766    0.3229896502366212 Se
   0.7231565452686618    0.7115374246492211    0.3229896502366212 Se
   0.6676009897131066    0.7809818690936655    0.3229896502366212 Se
   0.6120454341575509    0.8504263135381102    0.3229896502366212 Se
   0.5564898786019951    0.9198707579825544    0.3229896502366212 Se
   0.5009343230464395    0.9893152024269988    0.3229896502366212 Se
   0.8342676563797727    0.3226485357603321    0.3229896502366212 Se
   0.7787121008242175    0.3920929802047766    0.3229896502366213 Se
   0.7231565452686621    0.4615374246492211    0.3229896502366213 Se
   0.6676009897131067    0.5309818690936654    0.3229896502366213 Se
   0.6120454341575507    0.6004263135381099    0.3229896502366213 Se