{'film_sl_vectors': array([[ -4.17082784,  14.44817145,   0.        ],
       [-50.04993406,  -7.22408573,   0.        ]]), 'substrate_sl_vectors': array([[-12.12249774,  -8.99862085,  -0.        ],
       [-34.63570782,  35.99448342,   0.        ]]), 'film_vectors': array([[ 4.17082784,  0.        ,  0.        ],
       [-2.08541392,  3.61204286,  0.        ]]), 'substrate_vectors': array([[ 3.46357078,  0.        ,  0.        ],
       [-1.73178539,  2.99954028,  0.        ]]), 'film_transformation': array([[ 1.,  4.],
       [ 0., 50.]]), 'substrate_transformation': array([[ 1., 15.],
       [ 0., 72.]]), 'strain': Strain([[-0.01285943  0.00127407  0.        ]
 [ 0.00127407  0.00608186  0.        ]
 [ 0.          0.          0.        ]]), 'von_mises_strain': 0.011263174887518664, 'termination': ('default', 'default'), 'film_thickness': 1, 'substrate_thickness': 1, 'signed_angle': 110.48466180051344, 'decomposition_angle': -37.66189882171283}