Bi6
1.0
   2.2690047421794297   -3.9300314960694931    0.0000000000000000
   2.2690047421794297    3.9300314960694931    0.0000000000000000
   0.0000000000000000    0.0000000000000000   12.3084868058657637
Bi
6
direct
   0.3333333333333333    0.6666666666666666    0.8986686866666667 Bi
   0.0000000000000000    0.0000000000000000    0.7679979800000000 Bi
   0.0000000000000000    0.0000000000000000    0.2320020199999999 Bi
   0.6666666666666666    0.3333333333333333    0.1013313133333333 Bi
   0.6666666666666666    0.3333333333333333    0.5653353533333334 Bi
   0.3333333333333333    0.6666666666666666    0.4346646466666666 Bi
