Bi6
1.0
   2.2690047421794297   -3.9300314960694931    0.0000000000000000
   2.2690047421794297    3.9300314960694931    0.0000000000000000
   0.0000000000000000    0.0000000000000000   12.3084868058657637
Bi
6
direct
   0.3397179489722790    0.6726872568091822    0.8943464882139069 Bi
  -0.0388459615766967   -0.0735529529228337    0.7677945232317100 Bi
   0.0249239461874622    0.0671955093073684    0.2383266052923279 Bi
   0.6630244501946467    0.3531400363091269    0.1073526486304158 Bi
   0.6523166377640557    0.3306765349396334    0.5864902786903742 Bi
   0.3238546475471636    0.6600932947940472    0.4303297691630589 Bi
