Nb40 Bi56 Se164
1.0
   6.9271415635605562    0.0000000000000000    0.0000000000000004
   0.0000000016626132   29.9954028492324056    0.0000000000000018
   0.0000000000000000    0.0000000000000000   44.4624158930297497
Nb Bi Se
40 56 164
direct
   0.0883008674725624    0.0266900749600506    0.3447480443666842 Nb
   0.5883008674725624    0.0266900749600506    0.3447480443666842 Nb
   0.3383008674725623    0.1266900749600506    0.3447480443666842 Nb
   0.8383008674725624    0.1266900749600506    0.3447480443666842 Nb
   0.0883008674725624    0.2266900749600506    0.3447480443666842 Nb
   0.5883008674725626    0.2266900749600506    0.3447480443666842 Nb
   0.3383008674725625    0.3266900749600506    0.3447480443666842 Nb
   0.8383008674725621    0.3266900749600505    0.3447480443666842 Nb
   0.0883008674725625    0.4266900749600505    0.3447480443666842 Nb
   0.5883008674725624    0.4266900749600506    0.3447480443666842 Nb
   0.3383008674725624    0.5266900749600505    0.3447480443666842 Nb
   0.8383008674725622    0.5266900749600506    0.3447480443666842 Nb
   0.0883008674725619    0.6266900749600507    0.3447480443666842 Nb
   0.5883008674725626    0.6266900749600507    0.3447480443666842 Nb
   0.3383008674725619    0.7266900749600507    0.3447480443666842 Nb
   0.8383008674725626    0.7266900749600507    0.3447480443666842 Nb
   0.0883008674725619    0.8266900749600504    0.3447480443666842 Nb
   0.5883008674725624    0.8266900749600506    0.3447480443666843 Nb
   0.3383008674725622    0.9266900749600503    0.3447480443666843 Nb
   0.8383008674725626    0.9266900749600503    0.3447480443666843 Nb
   0.0881589850763632    0.0270153300946614    0.2065134900768983 Nb
   0.5881589850763632    0.0270153300946614    0.2065134900768983 Nb
   0.3381589850763632    0.1270153300946615    0.2065134900768983 Nb
   0.8381589850763631    0.1270153300946614    0.2065134900768983 Nb
   0.0881589850763633    0.2270153300946615    0.2065134900768983 Nb
   0.5881589850763632    0.2270153300946615    0.2065134900768983 Nb
   0.3381589850763632    0.3270153300946614    0.2065134900768983 Nb
   0.8381589850763631    0.3270153300946614    0.2065134900768983 Nb
   0.0881589850763632    0.4270153300946615    0.2065134900768983 Nb
   0.5881589850763632    0.4270153300946615    0.2065134900768983 Nb
   0.3381589850763632    0.5270153300946614    0.2065134900768983 Nb
   0.8381589850763634    0.5270153300946614    0.2065134900768983 Nb
   0.0881589850763632    0.6270153300946615    0.2065134900768983 Nb
   0.5881589850763631    0.6270153300946616    0.2065134900768983 Nb
   0.3381589850763632    0.7270153300946613    0.2065134900768983 Nb
   0.8381589850763630    0.7270153300946613    0.2065134900768983 Nb
   0.0881589850763630    0.8270153300946615    0.2065134900768983 Nb
   0.5881589850763632    0.8270153300946615    0.2065134900768983 Nb
   0.3381589850763627    0.9270153300946614    0.2065134900768983 Nb
   0.8381589850763632    0.9270153300946614    0.2065134900768983 Nb
   0.0223542382105205    0.9876983877128184    0.7944001694220464 Bi
   0.0223542382105205    0.1305555305699612    0.7944001694220464 Bi
   0.0223542382105204    0.2734126734271041    0.7944001694220464 Bi
   0.0223542382105206    0.4162698162842470    0.7944001694220464 Bi
   0.0223542382105208    0.5591269591413897    0.7944001694220464 Bi
   0.0223542382105207    0.7019841019985326    0.7944001694220464 Bi
   0.0223542382105209    0.8448412448556754    0.7944001694220464 Bi
   0.5223542382105205    0.0591269591413898    0.7944001694220464 Bi
   0.5223542382105206    0.2019841019985327    0.7944001694220464 Bi
   0.5223542382105206    0.3448412448556755    0.7944001694220464 Bi
   0.5223542382105207    0.4876983877128183    0.7944001694220464 Bi
   0.5223542382105204    0.6305555305699612    0.7944001694220464 Bi
   0.5223542382105206    0.7734126734271038    0.7944001694220464 Bi
   0.5223542382105206    0.9162698162842468    0.7944001694220464 Bi
   0.1842491865804931    0.9165981088063381    0.7047369577364244 Bi
   0.1842491865804927    0.0594552516634808    0.7047369577364244 Bi
   0.1842491865804926    0.2023123945206237    0.7047369577364244 Bi
   0.1842491865804927    0.3451695373777666    0.7047369577364244 Bi
   0.1842491865804927    0.4880266802349095    0.7047369577364244 Bi
   0.1842491865804926    0.6308838230920520    0.7047369577364244 Bi
   0.1842491865804922    0.7737409659491951    0.7047369577364244 Bi
   0.6842491865804926    0.9880266802349094    0.7047369577364244 Bi
   0.6842491865804925    0.1308838230920523    0.7047369577364244 Bi
   0.6842491865804926    0.2737409659491951    0.7047369577364244 Bi
   0.6842491865804926    0.4165981088063380    0.7047369577364244 Bi
   0.6842491865804928    0.5594552516634809    0.7047369577364244 Bi
   0.6842491865804925    0.7023123945206237    0.7047369577364244 Bi
   0.6842491865804926    0.8451695373777663    0.7047369577364244 Bi
   0.1775804083738762    0.9149578536571144    0.5688586317166681 Bi
   0.1775804083738763    0.0578149965142573    0.5688586317166681 Bi
   0.1775804083738764    0.2006721393714001    0.5688586317166681 Bi
   0.1775804083738765    0.3435292822285430    0.5688586317166681 Bi
   0.1775804083738766    0.4863864250856858    0.5688586317166681 Bi
   0.1775804083738763    0.6292435679428283    0.5688586317166681 Bi
   0.1775804083738766    0.7721007107999714    0.5688586317166681 Bi
   0.6775804083738765    0.9863864250856859    0.5688586317166681 Bi
   0.6775804083738766    0.1292435679428287    0.5688586317166681 Bi
   0.6775804083738765    0.2721007107999716    0.5688586317166681 Bi
   0.6775804083738767    0.4149578536571145    0.5688586317166681 Bi
   0.6775804083738767    0.5578149965142571    0.5688586317166681 Bi
   0.6775804083738763    0.7006721393714000    0.5688586317166681 Bi
   0.6775804083738766    0.8435292822285428    0.5688586317166681 Bi
   0.8425627878539654    0.0584238524418846    0.4795310425214355 Bi
   0.8425627878539655    0.2012809952990274    0.4795310425214355 Bi
   0.8425627878539655    0.3441381381561703    0.4795310425214355 Bi
   0.8425627878539657    0.4869952810133131    0.4795310425214355 Bi
   0.8425627878539653    0.6298524238704559    0.4795310425214355 Bi
   0.8425627878539653    0.7727095667275987    0.4795310425214355 Bi
   0.8425627878539655    0.9155667095847414    0.4795310425214355 Bi
   0.3425627878539654    0.1298524238704560    0.4795310425214355 Bi
   0.3425627878539654    0.2727095667275988    0.4795310425214355 Bi
   0.3425627878539655    0.4155667095847417    0.4795310425214355 Bi
   0.3425627878539653    0.5584238524418845    0.4795310425214355 Bi
   0.3425627878539659    0.7012809952990273    0.4795310425214355 Bi
   0.3425627878539653    0.8441381381561701    0.4795310425214355 Bi
   0.3425627878539654    0.9869952810133130    0.4795310425214355 Bi
   0.3382224630093235    0.9936937514166612    0.1686817922364797 Se
   0.8382224630093235    0.9936937514166612    0.1686817922364797 Se
   0.5882224630093237    0.0936937514166612    0.1686817922364797 Se
   0.0882224630093236    0.0936937514166612    0.1686817922364797 Se
   0.3382224630093235    0.1936937514166613    0.1686817922364797 Se
   0.8382224630093235    0.1936937514166612    0.1686817922364797 Se
   0.5882224630093233    0.2936937514166612    0.1686817922364797 Se
   0.0882224630093234    0.2936937514166613    0.1686817922364797 Se
   0.3382224630093235    0.3936937514166612    0.1686817922364797 Se
   0.8382224630093233    0.3936937514166612    0.1686817922364797 Se
   0.5882224630093235    0.4936937514166611    0.1686817922364797 Se
   0.0882224630093236    0.4936937514166612    0.1686817922364797 Se
   0.3382224630093229    0.5936937514166613    0.1686817922364797 Se
   0.8382224630093233    0.5936937514166614    0.1686817922364797 Se
   0.5882224630093237    0.6936937514166613    0.1686817922364797 Se
   0.0882224630093234    0.6936937514166613    0.1686817922364797 Se
   0.3382224630093232    0.7936937514166612    0.1686817922364797 Se
   0.8382224630093237    0.7936937514166613    0.1686817922364797 Se
   0.5882224630093232    0.8936937514166613    0.1686817922364797 Se
   0.0882224630093232    0.8936937514166611    0.1686817922364797 Se
   0.0883391809284673    0.9600272032532957    0.3069115334886653 Se
   0.5883391809284674    0.9600272032532957    0.3069115334886653 Se
   0.3383391809284673    0.0600272032532957    0.3069115334886653 Se
   0.8383391809284673    0.0600272032532957    0.3069115334886653 Se
   0.0883391809284674    0.1600272032532957    0.3069115334886653 Se
   0.5883391809284673    0.1600272032532957    0.3069115334886653 Se
   0.3383391809284671    0.2600272032532957    0.3069115334886653 Se
   0.8383391809284670    0.2600272032532957    0.3069115334886653 Se
   0.0883391809284672    0.3600272032532957    0.3069115334886653 Se
   0.5883391809284672    0.3600272032532957    0.3069115334886654 Se
   0.3383391809284671    0.4600272032532955    0.3069115334886654 Se
   0.8383391809284674    0.4600272032532957    0.3069115334886654 Se
   0.0883391809284673    0.5600272032532958    0.3069115334886654 Se
   0.5883391809284675    0.5600272032532959    0.3069115334886653 Se
   0.3383391809284671    0.6600272032532958    0.3069115334886653 Se
   0.8383391809284678    0.6600272032532960    0.3069115334886654 Se
   0.0883391809284674    0.7600272032532958    0.3069115334886653 Se
   0.5883391809284669    0.7600272032532956    0.3069115334886653 Se
   0.3383391809284675    0.8600272032532957    0.3069115334886653 Se
   0.8383391809284672    0.8600272032532956    0.3069115334886653 Se
   0.3381780931621885    0.9936593671236187    0.2443510399711945 Se
   0.8381780931621884    0.9936593671236187    0.2443510399711945 Se
   0.5881780931621885    0.0936593671236187    0.2443510399711945 Se
   0.0881780931621884    0.0936593671236187    0.2443510399711945 Se
   0.3381780931621885    0.1936593671236188    0.2443510399711945 Se
   0.8381780931621883    0.1936593671236187    0.2443510399711945 Se
   0.5881780931621884    0.2936593671236188    0.2443510399711945 Se
   0.0881780931621883    0.2936593671236187    0.2443510399711945 Se
   0.3381780931621884    0.3936593671236187    0.2443510399711945 Se
   0.8381780931621885    0.3936593671236188    0.2443510399711944 Se
   0.5881780931621883    0.4936593671236187    0.2443510399711945 Se
   0.0881780931621888    0.4936593671236187    0.2443510399711945 Se
   0.3381780931621886    0.5936593671236188    0.2443510399711945 Se
   0.8381780931621882    0.5936593671236189    0.2443510399711945 Se
   0.5881780931621886    0.6936593671236188    0.2443510399711945 Se
   0.0881780931621884    0.6936593671236188    0.2443510399711945 Se
   0.3381780931621882    0.7936593671236188    0.2443510399711945 Se
   0.8381780931621884    0.7936593671236188    0.2443510399711945 Se
   0.5881780931621882    0.8936593671236188    0.2443510399711944 Se
   0.0881780931621886    0.8936593671236188    0.2443510399711945 Se
   0.0882713942295083    0.9599955969345007    0.3825808312104175 Se
   0.5882713942295085    0.9599955969345007    0.3825808312104175 Se
   0.3382713942295082    0.0599955969345007    0.3825808312104175 Se
   0.8382713942295084    0.0599955969345007    0.3825808312104175 Se
   0.0882713942295083    0.1599955969345006    0.3825808312104175 Se
   0.5882713942295085    0.1599955969345007    0.3825808312104175 Se
   0.3382713942295082    0.2599955969345007    0.3825808312104175 Se
   0.8382713942295082    0.2599955969345007    0.3825808312104175 Se
   0.0882713942295083    0.3599955969345007    0.3825808312104175 Se
   0.5882713942295081    0.3599955969345007    0.3825808312104175 Se
   0.3382713942295084    0.4599955969345006    0.3825808312104175 Se
   0.8382713942295084    0.4599955969345007    0.3825808312104175 Se
   0.0882713942295082    0.5599955969345006    0.3825808312104175 Se
   0.5882713942295080    0.5599955969345007    0.3825808312104174 Se
   0.3382713942295082    0.6599955969345007    0.3825808312104174 Se
   0.8382713942295082    0.6599955969345006    0.3825808312104175 Se
   0.0882713942295078    0.7599955969345008    0.3825808312104174 Se
   0.5882713942295079    0.7599955969345006    0.3825808312104175 Se
   0.3382713942295078    0.8599955969345007    0.3825808312104175 Se
   0.8382713942295080    0.8599955969345008    0.3825808312104174 Se
   0.1897986501499124    0.9159031320006296    0.8313182077635203 Se
   0.1897986501499123    0.0587602748577723    0.8313182077635203 Se
   0.1897986501499121    0.2016174177149150    0.8313182077635203 Se
   0.1897986501499124    0.3444745605720579    0.8313182077635203 Se
   0.1897986501499121    0.4873317034292008    0.8313182077635203 Se
   0.1897986501499122    0.6301888462863435    0.8313182077635203 Se
   0.1897986501499126    0.7730459891434865    0.8313182077635203 Se
   0.6897986501499124    0.9873317034292008    0.8313182077635203 Se
   0.6897986501499123    0.1301888462863436    0.8313182077635203 Se
   0.6897986501499124    0.2730459891434864    0.8313182077635203 Se
   0.6897986501499123    0.4159031320006293    0.8313182077635203 Se
   0.6897986501499124    0.5587602748577722    0.8313182077635203 Se
   0.6897986501499119    0.7016174177149149    0.8313182077635203 Se
   0.6897986501499123    0.8444745605720578    0.8313182077635203 Se
   0.8531990507514433    0.0597535944233297    0.7495056388254160 Se
   0.8531990507514433    0.2026107372804725    0.7495056388254160 Se
   0.8531990507514433    0.3454678801376154    0.7495056388254160 Se
   0.8531990507514435    0.4883250229947581    0.7495056388254160 Se
   0.8531990507514439    0.6311821658519012    0.7495056388254160 Se
   0.8531990507514432    0.7740393087090438    0.7495056388254160 Se
   0.8531990507514436    0.9168964515661869    0.7495056388254160 Se
   0.3531990507514433    0.1311821658519011    0.7495056388254160 Se
   0.3531990507514433    0.2740393087090439    0.7495056388254160 Se
   0.3531990507514434    0.4168964515661868    0.7495056388254160 Se
   0.3531990507514435    0.5597535944233297    0.7495056388254160 Se
   0.3531990507514436    0.7026107372804727    0.7495056388254160 Se
   0.3531990507514436    0.8454678801376155    0.7495056388254160 Se
   0.3531990507514432    0.9883250229947580    0.7495056388254160 Se
   0.0194675384093829    0.9878903817685575    0.6677845033197066 Se
   0.0194675384093828    0.1307475246257003    0.6677845033197066 Se
   0.0194675384093827    0.2736046674828432    0.6677845033197066 Se
   0.0194675384093830    0.4164618103399860    0.6677845033197066 Se
   0.0194675384093830    0.5593189531971289    0.6677845033197066 Se
   0.0194675384093826    0.7021760960542716    0.6677845033197066 Se
   0.0194675384093831    0.8450332389114146    0.6677845033197066 Se
   0.5194675384093829    0.0593189531971288    0.6677845033197066 Se
   0.5194675384093828    0.2021760960542717    0.6677845033197066 Se
   0.5194675384093830    0.3450332389114146    0.6677845033197066 Se
   0.5194675384093829    0.4878903817685574    0.6677845033197066 Se
   0.5194675384093832    0.6307475246257003    0.6677845033197066 Se
   0.5194675384093831    0.7736046674828431    0.6677845033197066 Se
   0.5194675384093824    0.9164618103399857    0.6677845033197066 Se
   0.8429520688964122    0.0585288841444466    0.6055580957863086 Se
   0.8429520688964122    0.2013860270015895    0.6055580957863086 Se
   0.8429520688964121    0.3442431698587322    0.6055580957863086 Se
   0.8429520688964123    0.4871003127158752    0.6055580957863086 Se
   0.8429520688964122    0.6299574555730180    0.6055580957863086 Se
   0.8429520688964119    0.7728145984301609    0.6055580957863086 Se
   0.8429520688964122    0.9156717412873037    0.6055580957863087 Se
   0.3429520688964122    0.1299574555730180    0.6055580957863086 Se
   0.3429520688964121    0.2728145984301609    0.6055580957863086 Se
   0.3429520688964121    0.4156717412873037    0.6055580957863086 Se
   0.3429520688964124    0.5585288841444468    0.6055580957863086 Se
   0.3429520688964124    0.7013860270015894    0.6055580957863086 Se
   0.3429520688964119    0.8442431698587322    0.6055580957863087 Se
   0.3429520688964117    0.9871003127158752    0.6055580957863086 Se
   0.0098089863232543    0.9864255230757315    0.5241890951556732 Se
   0.0098089863232544    0.1292826659328744    0.5241890951556732 Se
   0.0098089863232545    0.2721398087900172    0.5241890951556732 Se
   0.0098089863232543    0.4149969516471601    0.5241890951556732 Se
   0.0098089863232543    0.5578540945043030    0.5241890951556732 Se
   0.0098089863232543    0.7007112373614458    0.5241890951556732 Se
   0.0098089863232545    0.8435683802185887    0.5241890951556732 Se
   0.5098089863232543    0.0578540945043030    0.5241890951556732 Se
   0.5098089863232542    0.2007112373614458    0.5241890951556732 Se
   0.5098089863232543    0.3435683802185886    0.5241890951556732 Se
   0.5098089863232544    0.4864255230757315    0.5241890951556732 Se
   0.5098089863232548    0.6292826659328743    0.5241890951556732 Se
   0.5098089863232546    0.7721398087900172    0.5241890951556734 Se
   0.5098089863232544    0.9149969516471601    0.5241890951556734 Se
   0.1780482716772735    0.9147205905082506    0.4427015086099987 Se
   0.1780482716772733    0.0575777333653934    0.4427015086099987 Se
   0.1780482716772734    0.2004348762225363    0.4427015086099987 Se
   0.1780482716772734    0.3432920190796790    0.4427015086099987 Se
   0.1780482716772733    0.4861491619368220    0.4427015086099987 Se
   0.1780482716772732    0.6290063047939647    0.4427015086099987 Se
   0.1780482716772730    0.7718634476511076    0.4427015086099987 Se
   0.6780482716772734    0.9861491619368219    0.4427015086099987 Se
   0.6780482716772736    0.1290063047939648    0.4427015086099987 Se
   0.6780482716772734    0.2718634476511076    0.4427015086099987 Se
   0.6780482716772732    0.4147205905082505    0.4427015086099987 Se
   0.6780482716772733    0.5575777333653932    0.4427015086099987 Se
   0.6780482716772734    0.7004348762225361    0.4427015086099987 Se
   0.6780482716772732    0.8432920190796788    0.4427015086099987 Se
