Se3
1.0
   2.2524103524436514   -3.9012891699265255    0.0000000000000000
   2.2524103524436514    3.9012891699265255    0.0000000000000000
   0.0000000000000000    0.0000000000000000    4.9787963166826419
Se
3
direct
   0.1997525027556536   -0.0380914987269473    0.3702823063723376 Se
  -0.0332025984504445    0.2282324950609332    0.7068193263298075 Se
   0.7946964859418011    0.7899397691253203    0.0031353952016324 Se
