Nb112 Bi152 Se452
1.0
  18.3274938740974065    0.0000000000000000    0.0000000000000011
   0.0000000020109122   31.7441505650538147    0.0000000000000019
   0.0000000000000000    0.0000000000000000   49.9893053307188922
Nb Bi Se
112 152 452
direct
   0.7561950870149939    0.5963915713086645    0.3566429020965913 Nb
   0.7204808013007081    0.7035344284515217    0.3566429020965913 Nb
   0.6847665155864227    0.8106772855943790    0.3566429020965913 Nb
   0.6490522298721367    0.9178201427372360    0.3566429020965913 Nb
   0.7561950870149937    0.0963915713086646    0.3566429020965913 Nb
   0.7204808013007084    0.2035344284515218    0.3566429020965913 Nb
   0.6847665155864227    0.3106772855943789    0.3566429020965913 Nb
   0.6490522298721367    0.4178201427372359    0.3566429020965913 Nb
   0.6133379441578511    0.5249629998800931    0.3566429020965913 Nb
   0.5776236584435654    0.6321058570229502    0.3566429020965913 Nb
   0.5419093727292797    0.7392487141658074    0.3566429020965913 Nb
   0.5061950870149940    0.8463915713086645    0.3566429020965913 Nb
   0.4704808013007081    0.9535344284515215    0.3566429020965913 Nb
   0.6133379441578508    0.0249629998800931    0.3566429020965914 Nb
   0.5776236584435651    0.1321058570229502    0.3566429020965913 Nb
   0.5419093727292796    0.2392487141658073    0.3566429020965913 Nb
   0.5061950870149938    0.3463915713086646    0.3566429020965913 Nb
   0.4704808013007082    0.4535344284515218    0.3566429020965913 Nb
   0.4347665155864225    0.5606772855943788    0.3566429020965913 Nb
   0.3990522298721370    0.6678201427372360    0.3566429020965913 Nb
   0.3633379441578511    0.7749629998800930    0.3566429020965913 Nb
   0.3276236584435653    0.8821058570229503    0.3566429020965913 Nb
   0.4347665155864225    0.0606772855943789    0.3566429020965914 Nb
   0.3990522298721368    0.1678201427372360    0.3566429020965914 Nb
   0.3633379441578510    0.2749629998800931    0.3566429020965913 Nb
   0.3276236584435654    0.3821058570229503    0.3566429020965913 Nb
   0.2919093727292798    0.4892487141658075    0.3566429020965913 Nb
   0.2561950870149942    0.5963915713086645    0.3566429020965913 Nb
   0.2204808013007082    0.7035344284515216    0.3566429020965913 Nb
   0.1847665155864226    0.8106772855943789    0.3566429020965913 Nb
   0.1490522298721368    0.9178201427372360    0.3566429020965913 Nb
   0.2919093727292797    0.9892487141658075    0.3566429020965914 Nb
   0.2561950870149939    0.0963915713086646    0.3566429020965914 Nb
   0.2204808013007081    0.2035344284515217    0.3566429020965914 Nb
   0.1847665155864225    0.3106772855943788    0.3566429020965913 Nb
   0.1490522298721367    0.4178201427372360    0.3566429020965913 Nb
   0.1133379441578511    0.5249629998800931    0.3566429020965913 Nb
   0.0776236584435656    0.6321058570229502    0.3566429020965913 Nb
   0.0419093727292797    0.7392487141658074    0.3566429020965913 Nb
   0.0061950870149939    0.8463915713086644    0.3566429020965913 Nb
   0.9704808013007082    0.9535344284515215    0.3566429020965913 Nb
   0.1133379441578512    0.0249629998800932    0.3566429020965914 Nb
   0.0776236584435654    0.1321058570229503    0.3566429020965914 Nb
   0.0419093727292797    0.2392487141658075    0.3566429020965914 Nb
   0.0061950870149939    0.3463915713086645    0.3566429020965914 Nb
   0.9704808013007082    0.4535344284515217    0.3566429020965913 Nb
   0.9347665155864227    0.5606772855943789    0.3566429020965913 Nb
   0.8990522298721366    0.6678201427372359    0.3566429020965913 Nb
   0.8633379441578511    0.7749629998800930    0.3566429020965913 Nb
   0.8276236584435654    0.8821058570229501    0.3566429020965913 Nb
   0.9347665155864225    0.0606772855943789    0.3566429020965913 Nb
   0.8990522298721368    0.1678201427372361    0.3566429020965913 Nb
   0.8633379441578511    0.2749629998800932    0.3566429020965913 Nb
   0.8276236584435654    0.3821058570229502    0.3566429020965913 Nb
   0.7919093727292797    0.4892487141658075    0.3566429020965913 Nb
   0.7919093727292796    0.9892487141658075    0.3566429020965913 Nb
   0.7556622210917837    0.5963638934052409    0.2336917587878817 Nb
   0.7199479353774980    0.7035067505480983    0.2336917587878817 Nb
   0.6842336496632123    0.8106496076909554    0.2336917587878817 Nb
   0.6485193639489264    0.9177924648338124    0.2336917587878816 Nb
   0.7556622210917836    0.0963638934052411    0.2336917587878817 Nb
   0.7199479353774979    0.2035067505480982    0.2336917587878817 Nb
   0.6842336496632121    0.3106496076909553    0.2336917587878817 Nb
   0.6485193639489263    0.4177924648338123    0.2336917587878817 Nb
   0.6128050782346407    0.5249353219766695    0.2336917587878817 Nb
   0.5770907925203551    0.6320781791195266    0.2336917587878817 Nb
   0.5413765068060693    0.7392210362623838    0.2336917587878817 Nb
   0.5056622210917835    0.8463638934052409    0.2336917587878817 Nb
   0.4699479353774981    0.9535067505480981    0.2336917587878817 Nb
   0.6128050782346407    0.0249353219766696    0.2336917587878816 Nb
   0.5770907925203549    0.1320781791195267    0.2336917587878816 Nb
   0.5413765068060693    0.2392210362623838    0.2336917587878817 Nb
   0.5056622210917836    0.3463638934052410    0.2336917587878817 Nb
   0.4699479353774980    0.4535067505480982    0.2336917587878817 Nb
   0.4342336496632122    0.5606496076909554    0.2336917587878817 Nb
   0.3985193639489265    0.6677924648338124    0.2336917587878817 Nb
   0.3628050782346408    0.7749353219766695    0.2336917587878817 Nb
   0.3270907925203550    0.8820781791195266    0.2336917587878817 Nb
   0.4342336496632121    0.0606496076909554    0.2336917587878817 Nb
   0.3985193639489265    0.1677924648338124    0.2336917587878816 Nb
   0.3628050782346409    0.2749353219766696    0.2336917587878816 Nb
   0.3270907925203552    0.3820781791195267    0.2336917587878817 Nb
   0.2913765068060694    0.4892210362623838    0.2336917587878817 Nb
   0.2556622210917837    0.5963638934052410    0.2336917587878817 Nb
   0.2199479353774978    0.7035067505480979    0.2336917587878817 Nb
   0.1842336496632122    0.8106496076909553    0.2336917587878817 Nb
   0.1485193639489265    0.9177924648338125    0.2336917587878817 Nb
   0.2913765068060694    0.9892210362623840    0.2336917587878817 Nb
   0.2556622210917837    0.0963638934052411    0.2336917587878817 Nb
   0.2199479353774979    0.2035067505480982    0.2336917587878817 Nb
   0.1842336496632122    0.3106496076909553    0.2336917587878816 Nb
   0.1485193639489265    0.4177924648338124    0.2336917587878816 Nb
   0.1128050782346408    0.5249353219766696    0.2336917587878817 Nb
   0.0770907925203551    0.6320781791195267    0.2336917587878817 Nb
   0.0413765068060694    0.7392210362623838    0.2336917587878817 Nb
   0.0056622210917837    0.8463638934052410    0.2336917587878817 Nb
   0.9699479353774979    0.9535067505480981    0.2336917587878817 Nb
   0.1128050782346409    0.0249353219766697    0.2336917587878817 Nb
   0.0770907925203552    0.1320781791195268    0.2336917587878817 Nb
   0.0413765068060694    0.2392210362623839    0.2336917587878817 Nb
   0.0056622210917836    0.3463638934052410    0.2336917587878817 Nb
   0.9699479353774979    0.4535067505480982    0.2336917587878816 Nb
   0.9342336496632123    0.5606496076909554    0.2336917587878817 Nb
   0.8985193639489265    0.6677924648338125    0.2336917587878817 Nb
   0.8628050782346408    0.7749353219766695    0.2336917587878816 Nb
   0.8270907925203551    0.8820781791195267    0.2336917587878816 Nb
   0.9342336496632123    0.0606496076909554    0.2336917587878817 Nb
   0.8985193639489264    0.1677924648338124    0.2336917587878817 Nb
   0.8628050782346407    0.2749353219766696    0.2336917587878817 Nb
   0.8270907925203552    0.3820781791195268    0.2336917587878817 Nb
   0.7913765068060693    0.4892210362623839    0.2336917587878817 Nb
   0.7913765068060694    0.9892210362623840    0.2336917587878816 Nb
   0.0657346060077006    0.0416669749794114    0.7671208852038272 Bi
   0.2499451323234901    0.1206143434004640    0.7671208852038272 Bi
   0.2236293428498059    0.2521932907688850    0.7671208852038272 Bi
   0.1973135533761216    0.3837722381373060    0.7671208852038272 Bi
   0.1709977639024376    0.5153511855057272    0.7671208852038272 Bi
   0.1446819744287534    0.6469301328741481    0.7671208852038272 Bi
   0.1183661849550691    0.7785090802425692    0.7671208852038272 Bi
   0.0920503954813850    0.9100880276109902    0.7671208852038272 Bi
   0.4604714481129636    0.0679827644530956    0.7671208852038272 Bi
   0.4341556586392796    0.1995617118215166    0.7671208852038272 Bi
   0.4078398691655952    0.3311406591899377    0.7671208852038272 Bi
   0.3815240796919112    0.4627196065583588    0.7671208852038272 Bi
   0.3552082902182270    0.5942985539267795    0.7671208852038272 Bi
   0.3288925007445428    0.7258775012952006    0.7671208852038272 Bi
   0.3025767112708586    0.8574564486636218    0.7671208852038272 Bi
   0.2762609217971744    0.9890353960320430    0.7671208852038272 Bi
   0.6446819744287532    0.1469301328741482    0.7671208852038272 Bi
   0.6183661849550689    0.2785090802425692    0.7671208852038272 Bi
   0.5920503954813847    0.4100880276109902    0.7671208852038272 Bi
   0.5657346060077006    0.5416669749794114    0.7671208852038272 Bi
   0.5394188165340165    0.6732459223478324    0.7671208852038272 Bi
   0.5131030270603322    0.8048248697162533    0.7671208852038272 Bi
   0.4867872375866482    0.9364038170846745    0.7671208852038273 Bi
   0.8552082902182270    0.0942985539267798    0.7671208852038272 Bi
   0.8288925007445426    0.2258775012952009    0.7671208852038272 Bi
   0.8025767112708584    0.3574564486636218    0.7671208852038272 Bi
   0.7762609217971743    0.4890353960320427    0.7671208852038272 Bi
   0.7499451323234901    0.6206143434004638    0.7671208852038272 Bi
   0.7236293428498060    0.7521932907688850    0.7671208852038273 Bi
   0.6973135533761218    0.8837722381373060    0.7671208852038273 Bi
   0.6709977639024374    0.0153511855057271    0.7671208852038272 Bi
   0.0394188165340163    0.1732459223478324    0.7671208852038272 Bi
   0.0131030270603323    0.3048248697162535    0.7671208852038272 Bi
   0.9867872375866480    0.4364038170846745    0.7671208852038272 Bi
   0.9604714481129637    0.5679827644530955    0.7671208852038272 Bi
   0.9341556586392797    0.6995617118215166    0.7671208852038272 Bi
   0.9078398691655954    0.8311406591899377    0.7671208852038273 Bi
   0.8815240796919110    0.9627196065583590    0.7671208852038272 Bi
   0.9322116106891466    0.0330718483121260    0.6873709670584139 Bi
   0.1164221370049361    0.1120192167331786    0.6873709670584138 Bi
   0.0901063475312519    0.2435981641015996    0.6873709670584138 Bi
   0.0637905580575676    0.3751771114700206    0.6873709670584138 Bi
   0.0374747685838836    0.5067560588384418    0.6873709670584138 Bi
   0.0111589791101993    0.6383350062068629    0.6873709670584138 Bi
   0.9848431896365151    0.7699139535752837    0.6873709670584138 Bi
   0.9585274001628309    0.9014929009437047    0.6873709670584138 Bi
   0.3269484527944098    0.0593876377858102    0.6873709670584138 Bi
   0.3006326633207255    0.1909665851542313    0.6873709670584138 Bi
   0.2743168738470413    0.3225455325226523    0.6873709670584138 Bi
   0.2480010843733572    0.4541244798910734    0.6873709670584138 Bi
   0.2216852948996730    0.5857034272594943    0.6873709670584138 Bi
   0.1953695054259888    0.7172823746279154    0.6873709670584138 Bi
   0.1690537159523045    0.8488613219963365    0.6873709670584138 Bi
   0.1427379264786204    0.9804402693647576    0.6873709670584138 Bi
   0.5111589791101993    0.1383350062068628    0.6873709670584138 Bi
   0.4848431896365149    0.2699139535752839    0.6873709670584138 Bi
   0.4585274001628308    0.4014929009437049    0.6873709670584138 Bi
   0.4322116106891467    0.5330718483121261    0.6873709670584138 Bi
   0.4058958212154625    0.6646507956805470    0.6873709670584138 Bi
   0.3795800317417782    0.7962297430489680    0.6873709670584138 Bi
   0.3532642422680941    0.9278086904173889    0.6873709670584138 Bi
   0.7216852948996729    0.0857034272594944    0.6873709670584138 Bi
   0.6953695054259887    0.2172823746279155    0.6873709670584138 Bi
   0.6690537159523046    0.3488613219963365    0.6873709670584138 Bi
   0.6427379264786203    0.4804402693647575    0.6873709670584138 Bi
   0.6164221370049359    0.6120192167331785    0.6873709670584138 Bi
   0.5901063475312518    0.7435981641015995    0.6873709670584138 Bi
   0.5637905580575679    0.8751771114700209    0.6873709670584138 Bi
   0.5374747685838833    0.0067560588384416    0.6873709670584138 Bi
   0.9058958212154623    0.1646507956805471    0.6873709670584138 Bi
   0.8795800317417780    0.2962297430489681    0.6873709670584138 Bi
   0.8532642422680938    0.4278086904173892    0.6873709670584138 Bi
   0.8269484527944095    0.5593876377858102    0.6873709670584138 Bi
   0.8006326633207256    0.6909665851542313    0.6873709670584138 Bi
   0.7743168738470415    0.8225455325226523    0.6873709670584138 Bi
   0.7480010843733572    0.9541244798910733    0.6873709670584138 Bi
   0.9298813505034971    0.0313855928271407    0.5665155440360312 Bi
   0.1140918768192866    0.1103329612481934    0.5665155440360312 Bi
   0.0877760873456024    0.2419119086166144    0.5665155440360312 Bi
   0.0614602978719182    0.3734908559850353    0.5665155440360312 Bi
   0.0351445083982341    0.5050698033534565    0.5665155440360312 Bi
   0.0088287189245499    0.6366487507218777    0.5665155440360312 Bi
   0.9825129294508657    0.7682276980902987    0.5665155440360313 Bi
   0.9561971399771815    0.8998066454587196    0.5665155440360312 Bi
   0.3246181926087602    0.0577013823008249    0.5665155440360312 Bi
   0.2983024031350761    0.1892803296692459    0.5665155440360312 Bi
   0.2719866136613919    0.3208592770376670    0.5665155440360312 Bi
   0.2456708241877077    0.4524382244060881    0.5665155440360312 Bi
   0.2193550347140235    0.5840171717745090    0.5665155440360312 Bi
   0.1930392452403394    0.7155961191429300    0.5665155440360313 Bi
   0.1667234557666552    0.8471750665113511    0.5665155440360312 Bi
   0.1404076662929709    0.9787540138797723    0.5665155440360312 Bi
   0.5088287189245498    0.1366487507218775    0.5665155440360312 Bi
   0.4825129294508655    0.2682276980902986    0.5665155440360312 Bi
   0.4561971399771814    0.3998066454587196    0.5665155440360312 Bi
   0.4298813505034972    0.5313855928271407    0.5665155440360313 Bi
   0.4035655610298131    0.6629645401955618    0.5665155440360312 Bi
   0.3772497715561288    0.7945434875639829    0.5665155440360312 Bi
   0.3509339820824447    0.9261224349324038    0.5665155440360312 Bi
   0.7193550347140234    0.0840171717745092    0.5665155440360312 Bi
   0.6930392452403390    0.2155961191429302    0.5665155440360312 Bi
   0.6667234557666551    0.3471750665113512    0.5665155440360312 Bi
   0.6404076662929710    0.4787540138797722    0.5665155440360312 Bi
   0.6140918768192866    0.6103329612481936    0.5665155440360312 Bi
   0.5877760873456025    0.7419119086166143    0.5665155440360312 Bi
   0.5614602978719182    0.8734908559850354    0.5665155440360312 Bi
   0.5351445083982341    0.0050698033534564    0.5665155440360312 Bi
   0.9035655610298127    0.1629645401955618    0.5665155440360312 Bi
   0.8772497715561288    0.2945434875639828    0.5665155440360313 Bi
   0.8509339820824444    0.4261224349324039    0.5665155440360312 Bi
   0.8246181926087603    0.5577013823008249    0.5665155440360312 Bi
   0.7983024031350759    0.6892803296692459    0.5665155440360312 Bi
   0.7719866136613920    0.8208592770376670    0.5665155440360312 Bi
   0.7456708241877079    0.9524382244060882    0.5665155440360312 Bi
   0.0080517110484430    0.9704985490625893    0.4870641414761426 Bi
   0.1922622373642326    0.0494459174836418    0.4870641414761425 Bi
   0.1659464478905484    0.1810248648520629    0.4870641414761425 Bi
   0.1396306584168641    0.3126038122204839    0.4870641414761425 Bi
   0.1133148689431800    0.4441827595889050    0.4870641414761425 Bi
   0.0869990794694959    0.5757617069573261    0.4870641414761425 Bi
   0.0606832899958117    0.7073406543257472    0.4870641414761425 Bi
   0.0343675005221275    0.8389196016941681    0.4870641414761425 Bi
   0.4027885531537063    0.9968143385362734    0.4870641414761425 Bi
   0.3764727636800220    0.1283932859046944    0.4870641414761425 Bi
   0.3501569742063378    0.2599722332731156    0.4870641414761425 Bi
   0.3238411847326537    0.3915511806415366    0.4870641414761425 Bi
   0.2975253952589694    0.5231301280099576    0.4870641414761425 Bi
   0.2712096057852853    0.6547090753783785    0.4870641414761425 Bi
   0.2448938163116012    0.7862880227467997    0.4870641414761425 Bi
   0.2185780268379170    0.9178669701152208    0.4870641414761425 Bi
   0.5869990794694957    0.0757617069573260    0.4870641414761425 Bi
   0.5606832899958114    0.2073406543257471    0.4870641414761425 Bi
   0.5343675005221273    0.3389196016941681    0.4870641414761425 Bi
   0.5080517110484433    0.4704985490625894    0.4870641414761425 Bi
   0.4817359215747590    0.6020774964310103    0.4870641414761425 Bi
   0.4554201321010748    0.7336564437994314    0.4870641414761425 Bi
   0.4291043426273906    0.8652353911678523    0.4870641414761425 Bi
   0.7975253952589693    0.0231301280099577    0.4870641414761425 Bi
   0.7712096057852852    0.1547090753783787    0.4870641414761425 Bi
   0.7448938163116010    0.2862880227467997    0.4870641414761425 Bi
   0.7185780268379169    0.4178669701152207    0.4870641414761425 Bi
   0.6922622373642325    0.5494459174836420    0.4870641414761425 Bi
   0.6659464478905484    0.6810248648520629    0.4870641414761425 Bi
   0.6396306584168643    0.8126038122204839    0.4870641414761425 Bi
   0.6133148689431801    0.9441827595889047    0.4870641414761426 Bi
   0.9817359215747588    0.1020774964310103    0.4870641414761425 Bi
   0.9554201321010747    0.2336564437994314    0.4870641414761425 Bi
   0.9291043426273904    0.3652353911678524    0.4870641414761425 Bi
   0.9027885531537068    0.4968143385362734    0.4870641414761425 Bi
   0.8764727636800221    0.6283932859046946    0.4870641414761425 Bi
   0.8501569742063382    0.7599722332731155    0.4870641414761425 Bi
   0.8238411847326538    0.8915511806415365    0.4870641414761426 Bi
   0.8270764352480668    0.5487291443263923    0.2000427878291580 Se
   0.7913621495337813    0.6558720014692496    0.2000427878291580 Se
   0.7556478638194957    0.7630148586121067    0.2000427878291580 Se
   0.7199335781052097    0.8701577157549637    0.2000427878291580 Se
   0.8270764352480668    0.0487291443263924    0.2000427878291580 Se
   0.7913621495337813    0.1558720014692497    0.2000427878291580 Se
   0.7556478638194956    0.2630148586121068    0.2000427878291580 Se
   0.7199335781052097    0.3701577157549639    0.2000427878291580 Se
   0.6842192923909243    0.4773005728978211    0.2000427878291580 Se
   0.6485050066766384    0.5844434300406782    0.2000427878291580 Se
   0.6127907209623525    0.6915862871835352    0.2000427878291580 Se
   0.5770764352480666    0.7987291443263922    0.2000427878291580 Se
   0.5413621495337815    0.9058720014692495    0.2000427878291580 Se
   0.6842192923909239    0.9773005728978210    0.2000427878291580 Se
   0.6485050066766384    0.0844434300406781    0.2000427878291580 Se
   0.6127907209623525    0.1915862871835353    0.2000427878291580 Se
   0.5770764352480670    0.2987291443263925    0.2000427878291580 Se
   0.5413621495337814    0.4058720014692496    0.2000427878291580 Se
   0.5056478638194954    0.5130148586121066    0.2000427878291580 Se
   0.4699335781052099    0.6201577157549639    0.2000427878291580 Se
   0.4342192923909241    0.7273005728978210    0.2000427878291580 Se
   0.3985050066766383    0.8344434300406782    0.2000427878291580 Se
   0.5056478638194956    0.0130148586121068    0.2000427878291580 Se
   0.4699335781052097    0.1201577157549639    0.2000427878291580 Se
   0.4342192923909242    0.2273005728978210    0.2000427878291580 Se
   0.3985050066766383    0.3344434300406781    0.2000427878291580 Se
   0.3627907209623528    0.4415862871835354    0.2000427878291580 Se
   0.3270764352480670    0.5487291443263924    0.2000427878291580 Se
   0.2913621495337811    0.6558720014692494    0.2000427878291580 Se
   0.2556478638194954    0.7630148586121066    0.2000427878291580 Se
   0.2199335781052097    0.8701577157549638    0.2000427878291580 Se
   0.3627907209623525    0.9415862871835352    0.2000427878291580 Se
   0.3270764352480668    0.0487291443263925    0.2000427878291580 Se
   0.2913621495337811    0.1558720014692496    0.2000427878291580 Se
   0.2556478638194954    0.2630148586121067    0.2000427878291580 Se
   0.2199335781052097    0.3701577157549639    0.2000427878291580 Se
   0.1842192923909240    0.4773005728978210    0.2000427878291580 Se
   0.1485050066766385    0.5844434300406782    0.2000427878291580 Se
   0.1127907209623527    0.6915862871835353    0.2000427878291580 Se
   0.0770764352480669    0.7987291443263924    0.2000427878291580 Se
   0.0413621495337811    0.9058720014692495    0.2000427878291580 Se
   0.1842192923909241    0.9773005728978211    0.2000427878291580 Se
   0.1485050066766383    0.0844434300406782    0.2000427878291580 Se
   0.1127907209623526    0.1915862871835353    0.2000427878291580 Se
   0.0770764352480668    0.2987291443263924    0.2000427878291580 Se
   0.0413621495337812    0.4058720014692496    0.2000427878291580 Se
   0.0056478638194956    0.5130148586121067    0.2000427878291580 Se
   0.9699335781052099    0.6201577157549638    0.2000427878291580 Se
   0.9342192923909242    0.7273005728978211    0.2000427878291580 Se
   0.8985050066766386    0.8344434300406782    0.2000427878291580 Se
   0.0056478638194955    0.0130148586121068    0.2000427878291580 Se
   0.9699335781052097    0.1201577157549639    0.2000427878291580 Se
   0.9342192923909240    0.2273005728978210    0.2000427878291580 Se
   0.8985050066766385    0.3344434300406782    0.2000427878291580 Se
   0.8627907209623525    0.4415862871835353    0.2000427878291580 Se
   0.8627907209623527    0.9415862871835352    0.2000427878291580 Se
   0.8633345817905578    0.6082874455157482    0.3229896502366214 Se
   0.8276202960762719    0.7154303026586054    0.3229896502366214 Se
   0.7919060103619858    0.8225731598014625    0.3229896502366214 Se
   0.7561917246477003    0.9297160169443197    0.3229896502366214 Se
   0.8633345817905576    0.1082874455157484    0.3229896502366214 Se
   0.8276202960762719    0.2154303026586055    0.3229896502366214 Se
   0.7919060103619860    0.3225731598014626    0.3229896502366214 Se
   0.7561917246477001    0.4297160169443197    0.3229896502366214 Se
   0.7204774389334145    0.5368588740871769    0.3229896502366214 Se
   0.6847631532191288    0.6440017312300339    0.3229896502366214 Se
   0.6490488675048433    0.7511445883728911    0.3229896502366214 Se
   0.6133345817905572    0.8582874455157481    0.3229896502366214 Se
   0.5776202960762717    0.9654303026586055    0.3229896502366214 Se
   0.7204774389334144    0.0368588740871769    0.3229896502366214 Se
   0.6847631532191288    0.1440017312300340    0.3229896502366214 Se
   0.6490488675048433    0.2511445883728912    0.3229896502366214 Se
   0.6133345817905573    0.3582874455157483    0.3229896502366214 Se
   0.5776202960762717    0.4654303026586055    0.3229896502366214 Se
   0.5419060103619860    0.5725731598014626    0.3229896502366214 Se
   0.5061917246477006    0.6797160169443197    0.3229896502366214 Se
   0.4704774389334143    0.7868588740871767    0.3229896502366214 Se
   0.4347631532191289    0.8940017312300340    0.3229896502366214 Se
   0.5419060103619859    0.0725731598014627    0.3229896502366214 Se
   0.5061917246477003    0.1797160169443198    0.3229896502366214 Se
   0.4704774389334147    0.2868588740871770    0.3229896502366214 Se
   0.4347631532191290    0.3940017312300341    0.3229896502366214 Se
   0.3990488675048430    0.5011445883728910    0.3229896502366214 Se
   0.3633345817905574    0.6082874455157482    0.3229896502366214 Se
   0.3276202960762718    0.7154303026586053    0.3229896502366214 Se
   0.2919060103619862    0.8225731598014626    0.3229896502366214 Se
   0.2561917246477002    0.9297160169443197    0.3229896502366214 Se
   0.3990488675048433    0.0011445883728912    0.3229896502366214 Se
   0.3633345817905576    0.1082874455157484    0.3229896502366214 Se
   0.3276202960762718    0.2154303026586055    0.3229896502366214 Se
   0.2919060103619861    0.3225731598014626    0.3229896502366214 Se
   0.2561917246477002    0.4297160169443197    0.3229896502366214 Se
   0.2204774389334148    0.5368588740871770    0.3229896502366214 Se
   0.1847631532191289    0.6440017312300338    0.3229896502366214 Se
   0.1490488675048431    0.7511445883728911    0.3229896502366214 Se
   0.1133345817905575    0.8582874455157483    0.3229896502366214 Se
   0.0776202960762717    0.9654303026586055    0.3229896502366214 Se
   0.2204774389334147    0.0368588740871769    0.3229896502366214 Se
   0.1847631532191290    0.1440017312300341    0.3229896502366214 Se
   0.1490488675048433    0.2511445883728912    0.3229896502366214 Se
   0.1133345817905576    0.3582874455157483    0.3229896502366214 Se
   0.0776202960762718    0.4654303026586055    0.3229896502366214 Se
   0.0419060103619862    0.5725731598014627    0.3229896502366214 Se
   0.0061917246477003    0.6797160169443198    0.3229896502366214 Se
   0.9704774389334144    0.7868588740871769    0.3229896502366214 Se
   0.9347631532191288    0.8940017312300340    0.3229896502366214 Se
   0.0419060103619861    0.0725731598014627    0.3229896502366214 Se
   0.0061917246477004    0.1797160169443198    0.3229896502366214 Se
   0.9704774389334148    0.2868588740871769    0.3229896502366214 Se
   0.9347631532191291    0.3940017312300341    0.3229896502366214 Se
   0.8990488675048435    0.5011445883728911    0.3229896502366214 Se
   0.8990488675048434    0.0011445883728913    0.3229896502366214 Se
   0.8271285264442327    0.5487447922031075    0.2673459347889960 Se
   0.7914142407299469    0.6558876493459648    0.2673459347889960 Se
   0.7556999550156616    0.7630305064888220    0.2673459347889960 Se
   0.7199856693013755    0.8701733636316790    0.2673459347889960 Se
   0.8271285264442327    0.0487447922031076    0.2673459347889960 Se
   0.7914142407299469    0.1558876493459647    0.2673459347889960 Se
   0.7556999550156610    0.2630305064888219    0.2673459347889960 Se
   0.7199856693013753    0.3701733636316789    0.2673459347889960 Se
   0.6842713835870897    0.4773162207745361    0.2673459347889960 Se
   0.6485570978728039    0.5844590779173930    0.2673459347889960 Se
   0.6128428121585183    0.6916019350602504    0.2673459347889960 Se
   0.5771285264442324    0.7987447922031073    0.2673459347889960 Se
   0.5414142407299470    0.9058876493459646    0.2673459347889960 Se
   0.6842713835870897    0.9773162207745361    0.2673459347889960 Se
   0.6485570978728039    0.0844590779173932    0.2673459347889960 Se
   0.6128428121585183    0.1916019350602503    0.2673459347889960 Se
   0.5771285264442324    0.2987447922031075    0.2673459347889960 Se
   0.5414142407299469    0.4058876493459647    0.2673459347889960 Se
   0.5056999550156613    0.5130305064888219    0.2673459347889960 Se
   0.4699856693013756    0.6201733636316790    0.2673459347889960 Se
   0.4342713835870896    0.7273162207745358    0.2673459347889960 Se
   0.3985570978728040    0.8344590779173933    0.2673459347889960 Se
   0.5056999550156611    0.0130305064888219    0.2673459347889960 Se
   0.4699856693013755    0.1201733636316790    0.2673459347889960 Se
   0.4342713835870898    0.2273162207745361    0.2673459347889960 Se
   0.3985570978728041    0.3344590779173933    0.2673459347889960 Se
   0.3628428121585184    0.4416019350602504    0.2673459347889960 Se
   0.3271285264442325    0.5487447922031073    0.2673459347889960 Se
   0.2914142407299469    0.6558876493459647    0.2673459347889960 Se
   0.2556999550156612    0.7630305064888219    0.2673459347889960 Se
   0.2199856693013753    0.8701733636316789    0.2673459347889960 Se
   0.3628428121585184    0.9416019350602504    0.2673459347889960 Se
   0.3271285264442327    0.0487447922031076    0.2673459347889960 Se
   0.2914142407299469    0.1558876493459647    0.2673459347889960 Se
   0.2556999550156613    0.2630305064888219    0.2673459347889960 Se
   0.2199856693013756    0.3701733636316790    0.2673459347889960 Se
   0.1842713835870898    0.4773162207745361    0.2673459347889960 Se
   0.1485570978728043    0.5844590779173932    0.2673459347889960 Se
   0.1128428121585183    0.6916019350602504    0.2673459347889960 Se
   0.0771285264442326    0.7987447922031075    0.2673459347889960 Se
   0.0414142407299469    0.9058876493459647    0.2673459347889960 Se
   0.1842713835870899    0.9773162207745362    0.2673459347889960 Se
   0.1485570978728041    0.0844590779173933    0.2673459347889960 Se
   0.1128428121585184    0.1916019350602505    0.2673459347889960 Se
   0.0771285264442326    0.2987447922031075    0.2673459347889960 Se
   0.0414142407299470    0.4058876493459647    0.2673459347889960 Se
   0.0056999550156613    0.5130305064888219    0.2673459347889960 Se
   0.9699856693013755    0.6201733636316789    0.2673459347889960 Se
   0.9342713835870898    0.7273162207745361    0.2673459347889960 Se
   0.8985570978728037    0.8344590779173930    0.2673459347889960 Se
   0.0056999550156613    0.0130305064888219    0.2673459347889960 Se
   0.9699856693013755    0.1201733636316790    0.2673459347889960 Se
   0.9342713835870898    0.2273162207745361    0.2673459347889960 Se
   0.8985570978728041    0.3344590779173932    0.2673459347889960 Se
   0.8628428121585184    0.4416019350602504    0.2673459347889960 Se