Nb156 Bi212 Se630
1.0
  18.3274938734689954    0.0000000000000000    0.0000000000000011
   0.6545533515735427   44.2150668599838497    0.0000000000000027
   0.0000000000000000    0.0000000000000000   49.9893053307188922
Nb Bi Se
156 212 630
direct
   0.1009621225652687    0.8769103353487998    0.3566429020965912 Nb
   0.2419877635909098    0.9281923866308511    0.3566429020965912 Nb
   0.1394236610268073    0.7999872584257226    0.3566429020965912 Nb
   0.2804493020524483    0.8512693097077739    0.3566429020965912 Nb
   0.4214749430780892    0.9025513609898254    0.3566429020965912 Nb
   0.1778851994883456    0.7230641815026460    0.3566429020965912 Nb
   0.3189108405139867    0.7743462327846971    0.3566429020965912 Nb
   0.4599364815396277    0.8256282840667484    0.3566429020965912 Nb
   0.6009621225652686    0.8769103353487999    0.3566429020965912 Nb
   0.7419877635909098    0.9281923866308509    0.3566429020965912 Nb
   0.0753210969242430    0.5948590532975178    0.3566429020965912 Nb
   0.2163467379498840    0.6461411045795691    0.3566429020965912 Nb
   0.3573723789755251    0.6974231558616203    0.3566429020965912 Nb
   0.4983980200011661    0.7487052071436715    0.3566429020965912 Nb
   0.6394236610268070    0.7999872584257232    0.3566429020965912 Nb
   0.7804493020524480    0.8512693097077740    0.3566429020965912 Nb
   0.9214749430780891    0.9025513609898254    0.3566429020965912 Nb
   0.1137826353857815    0.5179359763744408    0.3566429020965912 Nb
   0.2548082764114225    0.5692180276564921    0.3566429020965912 Nb
   0.3958339174370636    0.6205000789385434    0.3566429020965912 Nb
   0.5368595584627046    0.6717821302205946    0.3566429020965912 Nb
   0.6778851994883457    0.7230641815026460    0.3566429020965912 Nb
   0.8189108405139867    0.7743462327846971    0.3566429020965912 Nb
   0.9599364815396276    0.8256282840667482    0.3566429020965912 Nb
   0.1522441738473200    0.4410128994513638    0.3566429020965912 Nb
   0.2932698148729610    0.4922949507334151    0.3566429020965912 Nb
   0.4342954558986021    0.5435770020154664    0.3566429020965912 Nb
   0.5753210969242430    0.5948590532975178    0.3566429020965912 Nb
   0.7163467379498841    0.6461411045795691    0.3566429020965912 Nb
   0.8573723789755248    0.6974231558616203    0.3566429020965912 Nb
   0.9983980200011658    0.7487052071436717    0.3566429020965912 Nb
   0.1907057123088584    0.3640898225282869    0.3566429020965912 Nb
   0.3317313533344995    0.4153718738103382    0.3566429020965912 Nb
   0.4727569943601403    0.4666539250923895    0.3566429020965912 Nb
   0.6137826353857816    0.5179359763744408    0.3566429020965912 Nb
   0.7548082764114226    0.5692180276564922    0.3566429020965912 Nb
   0.8958339174370635    0.6205000789385433    0.3566429020965912 Nb
   0.0368595584627044    0.6717821302205946    0.3566429020965912 Nb
   0.0881416097447560    0.2358846943231587    0.3566429020965912 Nb
   0.2291672507703970    0.2871667456052100    0.3566429020965912 Nb
   0.3701928917960380    0.3384487968872613    0.3566429020965912 Nb
   0.5112185328216788    0.3897308481693126    0.3566429020965912 Nb
   0.6522441738473199    0.4410128994513638    0.3566429020965912 Nb
   0.7932698148729611    0.4922949507334151    0.3566429020965912 Nb
   0.9342954558986020    0.5435770020154665    0.3566429020965912 Nb
   0.1266031482062945    0.1589616174000817    0.3566429020965912 Nb
   0.2676287892319354    0.2102436686821330    0.3566429020965912 Nb
   0.4086544302575764    0.2615257199641843    0.3566429020965912 Nb
   0.5496800712832173    0.3128077712462357    0.3566429020965912 Nb
   0.6907057123088582    0.3640898225282868    0.3566429020965912 Nb
   0.8317313533344993    0.4153718738103382    0.3566429020965912 Nb
   0.9727569943601405    0.4666539250923894    0.3566429020965912 Nb
   0.1650646866678329    0.0820385404770048    0.3566429020965912 Nb
   0.3060903276934738    0.1333205917590562    0.3566429020965912 Nb
   0.4471159687191149    0.1846026430411074    0.3566429020965912 Nb
   0.5881416097447560    0.2358846943231587    0.3566429020965912 Nb
   0.7291672507703968    0.2871667456052100    0.3566429020965912 Nb
   0.8701928917960380    0.3384487968872612    0.3566429020965912 Nb
   0.0112185328216788    0.3897308481693125    0.3566429020965912 Nb
   0.0625005841037302    0.9538334122718767    0.3566429020965912 Nb
   0.2035262251293714    0.0051154635539279    0.3566429020965912 Nb
   0.3445518661550123    0.0563975148359792    0.3566429020965912 Nb
   0.4855775071806534    0.1076795661180305    0.3566429020965912 Nb
   0.6266031482062944    0.1589616174000818    0.3566429020965912 Nb
   0.7676287892319354    0.2102436686821330    0.3566429020965912 Nb
   0.9086544302575763    0.2615257199641843    0.3566429020965912 Nb
   0.0496800712832174    0.3128077712462356    0.3566429020965912 Nb
   0.3830134046165507    0.9794744379129022    0.3566429020965912 Nb
   0.5240390456421917    0.0307564891949535    0.3566429020965912 Nb
   0.6650646866678327    0.0820385404770048    0.3566429020965912 Nb
   0.8060903276934740    0.1333205917590561    0.3566429020965912 Nb
   0.9471159687191147    0.1846026430411074    0.3566429020965912 Nb
   0.5625005841037301    0.9538334122718767    0.3566429020965912 Nb
   0.7035262251293710    0.0051154635539279    0.3566429020965912 Nb
   0.8445518661550122    0.0563975148359792    0.3566429020965912 Nb
   0.9855775071806533    0.1076795661180305    0.3566429020965912 Nb
   0.8830134046165506    0.9794744379129022    0.3566429020965912 Nb
   0.0240390456421919    0.0307564891949535    0.3566429020965912 Nb
   0.1013565853749906    0.8767580898845071    0.2336917587878816 Nb
   0.2423822264006316    0.9280401411665584    0.2336917587878816 Nb
   0.1398181238365291    0.7998350129614302    0.2336917587878816 Nb
   0.2808437648621702    0.8511170642434813    0.2336917587878816 Nb
   0.4218694058878110    0.9023991155255326    0.2336917587878816 Nb
   0.1782796622980676    0.7229119360383532    0.2336917587878816 Nb
   0.3193053033237085    0.7741939873204043    0.2336917587878816 Nb
   0.4603309443493496    0.8254760386024559    0.2336917587878816 Nb
   0.6013565853749907    0.8767580898845070    0.2336917587878816 Nb
   0.7423822264006317    0.9280401411665582    0.2336917587878816 Nb
   0.0757155597339649    0.5947068078332249    0.2336917587878816 Nb
   0.2167412007596061    0.6459888591152763    0.2336917587878816 Nb
   0.3577668417852470    0.6972709103973275    0.2336917587878816 Nb
   0.4987924828108880    0.7485529616793789    0.2336917587878816 Nb
   0.6398181238365289    0.7998350129614303    0.2336917587878816 Nb
   0.7808437648621699    0.8511170642434813    0.2336917587878816 Nb
   0.9218694058878111    0.9023991155255326    0.2336917587878816 Nb
   0.1141770981955034    0.5177837309101478    0.2336917587878816 Nb
   0.2552027392211446    0.5690657821921994    0.2336917587878816 Nb
   0.3962283802467854    0.6203478334742506    0.2336917587878816 Nb
   0.5372540212724265    0.6716298847563020    0.2336917587878816 Nb
   0.6782796622980676    0.7229119360383530    0.2336917587878816 Nb
   0.8193053033237087    0.7741939873204041    0.2336917587878816 Nb
   0.9603309443493494    0.8254760386024558    0.2336917587878816 Nb
   0.1526386366570419    0.4408606539870710    0.2336917587878816 Nb
   0.2936642776826830    0.4921427052691222    0.2336917587878816 Nb
   0.4346899187083239    0.5434247565511735    0.2336917587878816 Nb
   0.5757155597339650    0.5947068078332250    0.2336917587878816 Nb
   0.7167412007596060    0.6459888591152763    0.2336917587878816 Nb
   0.8577668417852466    0.6972709103973275    0.2336917587878816 Nb
   0.9987924828108879    0.7485529616793789    0.2336917587878816 Nb
   0.1911001751185804    0.3639375770639940    0.2336917587878816 Nb
   0.3321258161442214    0.4152196283460454    0.2336917587878816 Nb
   0.4731514571698623    0.4665016796280966    0.2336917587878816 Nb
   0.6141770981955035    0.5177837309101481    0.2336917587878816 Nb
   0.7552027392211444    0.5690657821921993    0.2336917587878816 Nb
   0.8962283802467853    0.6203478334742504    0.2336917587878816 Nb
   0.0372540212724263    0.6716298847563018    0.2336917587878816 Nb
   0.0885360725544778    0.2357324488588659    0.2336917587878816 Nb
   0.2295617135801188    0.2870145001409172    0.2336917587878816 Nb
   0.3705873546057599    0.3382965514229684    0.2336917587878816 Nb
   0.5116129956314008    0.3895786027050196    0.2336917587878816 Nb
   0.6526386366570418    0.4408606539870711    0.2336917587878816 Nb
   0.7936642776826830    0.4921427052691223    0.2336917587878816 Nb
   0.9346899187083239    0.5434247565511737    0.2336917587878816 Nb
   0.1269976110160163    0.1588093719357889    0.2336917587878816 Nb
   0.2680232520416573    0.2100914232178402    0.2336917587878816 Nb
   0.4090488930672982    0.2613734744998915    0.2336917587878816 Nb
   0.5500745340929393    0.3126555257819427    0.2336917587878816 Nb
   0.6911001751185804    0.3639375770639940    0.2336917587878816 Nb
   0.8321258161442212    0.4152196283460454    0.2336917587878816 Nb
   0.9731514571698624    0.4665016796280966    0.2336917587878816 Nb
   0.1654591494775547    0.0818862950127120    0.2336917587878816 Nb
   0.3064847905031958    0.1331683462947633    0.2336917587878816 Nb
   0.4475104315288367    0.1844503975768146    0.2336917587878816 Nb
   0.5885360725544777    0.2357324488588659    0.2336917587878816 Nb
   0.7295617135801188    0.2870145001409172    0.2336917587878816 Nb
   0.8705873546057599    0.3382965514229683    0.2336917587878816 Nb
   0.0116129956314007    0.3895786027050198    0.2336917587878816 Nb
   0.0628950469134522    0.9536811668075840    0.2336917587878816 Nb
   0.2039206879390932    0.0049632180896351    0.2336917587878816 Nb
   0.3449463289647343    0.0562452693716863    0.2336917587878816 Nb
   0.4859719699903752    0.1075273206537377    0.2336917587878816 Nb
   0.6269976110160161    0.1588093719357889    0.2336917587878816 Nb
   0.7680232520416570    0.2100914232178402    0.2336917587878816 Nb
   0.9090488930672983    0.2613734744998915    0.2336917587878816 Nb
   0.0500745340929393    0.3126555257819428    0.2336917587878816 Nb
   0.3834078674262726    0.9793221924486094    0.2336917587878816 Nb
   0.5244335084519137    0.0306042437306607    0.2336917587878816 Nb
   0.6654591494775547    0.0818862950127120    0.2336917587878816 Nb
   0.8064847905031958    0.1331683462947633    0.2336917587878816 Nb
   0.9475104315288366    0.1844503975768146    0.2336917587878816 Nb
   0.5628950469134523    0.9536811668075837    0.2336917587878816 Nb
   0.7039206879390931    0.0049632180896351    0.2336917587878816 Nb
   0.8449463289647342    0.0562452693716863    0.2336917587878816 Nb
   0.9859719699903752    0.1075273206537376    0.2336917587878816 Nb
   0.8834078674262728    0.9793221924486094    0.2336917587878816 Nb
   0.0244335084519137    0.0306042437306607    0.2336917587878816 Nb
   0.5854463415741903    0.0865604503333944    0.7671208852038270 Bi
   0.6043142661024922    0.1809000729749038    0.7671208852038270 Bi
   0.6231821906307939    0.2752396956164133    0.7671208852038270 Bi
   0.6420501151590959    0.3695793182579227    0.7671208852038270 Bi
   0.6609180396873980    0.4639189408994321    0.7671208852038269 Bi
   0.6797859642156996    0.5582585635409417    0.7671208852038272 Bi
   0.6986538887440017    0.6525981861824511    0.7671208852038272 Bi
   0.7175218132723034    0.7469378088239604    0.7671208852038272 Bi
   0.7363897378006057    0.8412774314654698    0.7671208852038272 Bi
   0.7552576623289073    0.9356170541069792    0.7671208852038272 Bi
   0.3778991717628696    0.0488246012767906    0.7671208852038270 Bi
   0.3967670962911715    0.1431642239183000    0.7671208852038270 Bi
   0.4156350208194732    0.2375038465598094    0.7671208852038270 Bi
   0.4345029453477754    0.3318434692013189    0.7671208852038270 Bi
   0.4533708698760773    0.4261830918428283    0.7671208852038270 Bi
   0.4722387944043791    0.5205227144843377    0.7671208852038269 Bi
   0.4911067189326812    0.6148623371258473    0.7671208852038272 Bi
   0.5099746434609826    0.7092019597673566    0.7671208852038272 Bi
   0.5288425679892849    0.8035415824088660    0.7671208852038272 Bi
   0.5477104925175865    0.8978812050503754    0.7671208852038272 Bi
   0.5665784170458884    0.9922208276918850    0.7671208852038270 Bi
   0.1892199264798507    0.1054283748616962    0.7671208852038270 Bi
   0.2080878510081526    0.1997679975032056    0.7671208852038270 Bi
   0.2269557755364544    0.2941076201447151    0.7671208852038270 Bi
   0.2458237000647562    0.3884472427862246    0.7671208852038270 Bi
   0.2646916245930581    0.4827868654277341    0.7671208852038270 Bi
   0.2835595491213602    0.5771264880692435    0.7671208852038269 Bi
   0.3024274736496622    0.6714661107107528    0.7671208852038272 Bi
   0.3212953981779638    0.7658057333522623    0.7671208852038272 Bi
   0.3401633227062658    0.8601453559937717    0.7671208852038272 Bi
   0.3590312472345679    0.9544849786352813    0.7671208852038272 Bi
   0.9816727566685299    0.0676925258050924    0.7671208852038270 Bi
   0.0005406811968318    0.1620321484466019    0.7671208852038270 Bi
   0.0194086057251337    0.2563717710881113    0.7671208852038270 Bi
   0.0382765302534356    0.3507113937296208    0.7671208852038270 Bi
   0.0571444547817375    0.4450510163711301    0.7671208852038270 Bi
   0.0760123793100394    0.5393906390126396    0.7671208852038270 Bi
   0.0948803038383415    0.6337302616541490    0.7671208852038270 Bi
   0.1137482283666433    0.7280698842956583    0.7671208852038269 Bi
   0.1326161528949452    0.8224095069371677    0.7671208852038272 Bi
   0.1514840774232467    0.9167491295786774    0.7671208852038272 Bi
   0.1703520019515488    0.0110887522201869    0.7671208852038270 Bi
   0.7741255868572092    0.0299566767484887    0.7671208852038270 Bi
   0.7929935113855111    0.1242962993899981    0.7671208852038270 Bi
   0.8118614359138129    0.2186359220315076    0.7671208852038270 Bi
   0.8307293604421147    0.3129755446730170    0.7671208852038270 Bi
   0.8495972849704166    0.4073151673145264    0.7671208852038269 Bi
   0.8684652094987185    0.5016547899560359    0.7671208852038272 Bi
   0.8873331340270205    0.5959944125975453    0.7671208852038272 Bi
   0.9062010585553226    0.6903340352390548    0.7671208852038272 Bi
   0.9250689830836243    0.7846736578805641    0.7671208852038269 Bi
   0.9439369076119261    0.8790132805220736    0.7671208852038272 Bi
   0.9628048321402279    0.9733529031635829    0.7671208852038270 Bi
   0.7194558534965529    0.0803979066851521    0.6873709670584138 Bi
   0.7383237780248546    0.1747375293266615    0.6873709670584138 Bi
   0.7571917025531564    0.2690771519681709    0.6873709670584138 Bi
   0.7760596270814586    0.3634167746096803    0.6873709670584138 Bi
   0.7949275516097603    0.4577563972511898    0.6873709670584138 Bi
   0.8137954761380621    0.5520960198926993    0.6873709670584138 Bi
   0.8326634006663641    0.6464356425342087    0.6873709670584138 Bi
   0.8515313251946659    0.7407752651757181    0.6873709670584138 Bi
   0.8703992497229681    0.8351148878172275    0.6873709670584138 Bi
   0.8892671742512701    0.9294545104587369    0.6873709670584138 Bi
   0.5119086836852323    0.0426620576285483    0.6873709670584138 Bi
   0.5307766082135342    0.1370016802700577    0.6873709670584138 Bi
   0.5496445327418360    0.2313413029115672    0.6873709670584138 Bi
   0.5685124572701379    0.3256809255530766    0.6873709670584138 Bi
   0.5873803817984398    0.4200205481945860    0.6873709670584138 Bi
   0.6062483063267418    0.5143601708360955    0.6873709670584138 Bi
   0.6251162308550432    0.6086997934776051    0.6873709670584138 Bi
   0.6439841553833454    0.7030394161191145    0.6873709670584138 Bi
   0.6628520799116471    0.7973790387606239    0.6873709670584138 Bi
   0.6817200044399492    0.8917186614021333    0.6873709670584138 Bi
   0.7005879289682511    0.9860582840436426    0.6873709670584138 Bi
   0.3232294384022132    0.0992658312134539    0.6873709670584138 Bi
   0.3420973629305152    0.1936054538549634    0.6873709670584138 Bi
   0.3609652874588171    0.2879450764964728    0.6873709670584138 Bi
   0.3798332119871190    0.3822846991379822    0.6873709670584138 Bi
   0.3987011365154208    0.4766243217794915    0.6873709670584138 Bi
   0.4175690610437227    0.5709639444210012    0.6873709670584138 Bi
   0.4364369855720246    0.6653035670625106    0.6873709670584138 Bi
   0.4553049101003264    0.7596431897040199    0.6873709670584138 Bi
   0.4741728346286286    0.8539828123455295    0.6873709670584138 Bi
   0.4930407591569302    0.9483224349870387    0.6873709670584138 Bi
   0.1156822685908925    0.0615299821568501    0.6873709670584138 Bi
   0.1345501931191946    0.1558696047983595    0.6873709670584138 Bi
   0.1534181176474964    0.2502092274398689    0.6873709670584138 Bi
   0.1722860421757982    0.3445488500813784    0.6873709670584138 Bi
   0.1911539667041001    0.4388884727228878    0.6873709670584138 Bi
   0.2100218912324021    0.5332280953643972    0.6873709670584138 Bi
   0.2288898157607040    0.6275677180059068    0.6873709670584138 Bi
   0.2477577402890057    0.7219073406474162    0.6873709670584138 Bi
   0.2666256648173078    0.8162469632889254    0.6873709670584138 Bi
   0.2854935893456095    0.9105865859304348    0.6873709670584138 Bi
   0.3043615138739115    0.0049262085719445    0.6873709670584138 Bi
   0.9081350987795718    0.0237941331002464    0.6873709670584138 Bi
   0.9270030233078737    0.1181337557417557    0.6873709670584138 Bi
   0.9458709478361755    0.2124733783832651    0.6873709670584138 Bi
   0.9647388723644775    0.3068130010247746    0.6873709670584138 Bi
   0.9836067968927794    0.4011526236662840    0.6873709670584138 Bi
   0.0024747214210812    0.4954922463077934    0.6873709670584138 Bi
   0.0213426459493831    0.5898318689493030    0.6873709670584138 Bi
   0.0402105704776852    0.6841714915908124    0.6873709670584138 Bi
   0.0590784950059868    0.7785111142323218    0.6873709670584138 Bi
   0.0779464195342887    0.8728507368738312    0.6873709670584138 Bi
   0.0968143440625906    0.9671903595153406    0.6873709670584138 Bi
   0.7218815621058806    0.0791888933185588    0.5665155440360311 Bi
   0.7407494866341826    0.1735285159600683    0.5665155440360311 Bi
   0.7596174111624845    0.2678681386015778    0.5665155440360311 Bi
   0.7784853356907864    0.3622077612430872    0.5665155440360311 Bi
   0.7973532602190885    0.4565473838845966    0.5665155440360311 Bi
   0.8162211847473901    0.5508870065261060    0.5665155440360311 Bi
   0.8350891092756921    0.6452266291676156    0.5665155440360311 Bi
   0.8539570338039940    0.7395662518091251    0.5665155440360311 Bi
   0.8728249583322956    0.8339058744506345    0.5665155440360311 Bi
   0.8916928828605978    0.9282454970921437    0.5665155440360311 Bi
   0.5143343922945601    0.0414530442619550    0.5665155440360311 Bi
   0.5332023168228621    0.1357926669034645    0.5665155440360311 Bi
   0.5520702413511639    0.2301322895449738    0.5665155440360311 Bi
   0.5709381658794658    0.3244719121864834    0.5665155440360311 Bi
   0.5898060904077677    0.4188115348279928    0.5665155440360311 Bi
   0.6086740149360692    0.5131511574695024    0.5665155440360311 Bi
   0.6275419394643714    0.6074907801110118    0.5665155440360311 Bi
   0.6464098639926732    0.7018304027525211    0.5665155440360311 Bi
   0.6652777885209754    0.7961700253940305    0.5665155440360311 Bi
   0.6841457130492770    0.8905096480355399    0.5665155440360311 Bi
   0.7030136375775790    0.9848492706770494    0.5665155440360311 Bi
   0.3256551470115411    0.0980568178468607    0.5665155440360311 Bi
   0.3445230715398430    0.1923964404883701    0.5665155440360311 Bi
   0.3633909960681449    0.2867360631298795    0.5665155440360311 Bi
   0.3822589205964468    0.3810756857713890    0.5665155440360311 Bi
   0.4011268451247487    0.4754153084128984    0.5665155440360311 Bi
   0.4199947696530505    0.5697549310544080    0.5665155440360311 Bi
   0.4388626941813523    0.6640945536959173    0.5665155440360311 Bi
   0.4577306187096543    0.7584341763374266    0.5665155440360311 Bi
   0.4765985432379564    0.8527737989789360    0.5665155440360311 Bi
   0.4954664677662583    0.9471134216204457    0.5665155440360311 Bi
   0.1181079772002204    0.0603209687902569    0.5665155440360311 Bi
   0.1369759017285223    0.1546605914317663    0.5665155440360311 Bi
   0.1558438262568242    0.2490002140732757    0.5665155440360311 Bi
   0.1747117507851260    0.3433398367147852    0.5665155440360311 Bi
   0.1935796753134280    0.4376794593562945    0.5665155440360311 Bi
   0.2124475998417298    0.5320190819978040    0.5665155440360311 Bi
   0.2313155243700318    0.6263587046393135    0.5665155440360311 Bi
   0.2501834488983338    0.7206983272808228    0.5665155440360311 Bi
   0.2690513734266355    0.8150379499223324    0.5665155440360311 Bi
   0.2879192979549373    0.9093775725638418    0.5665155440360311 Bi
   0.3067872224832393    0.0037171952053513    0.5665155440360311 Bi
   0.9105608073888993    0.0225851197336531    0.5665155440360311 Bi
   0.9294287319172015    0.1169247423751625    0.5665155440360311 Bi
   0.9482966564455034    0.2112643650166719    0.5665155440360311 Bi
   0.9671645809738053    0.3056039876581814    0.5665155440360311 Bi
   0.9860325055021072    0.3999436102996907    0.5665155440360311 Bi
   0.0049004300304091    0.4942832329412002    0.5665155440360311 Bi
   0.0237683545587109    0.5886228555827098    0.5665155440360311 Bi
   0.0426362790870129    0.6829624782242192    0.5665155440360311 Bi
   0.0615042036153147    0.7773021008657286    0.5665155440360311 Bi
   0.0803721281436166    0.8716417235072380    0.5665155440360311 Bi
   0.0992400526719186    0.9659813461487474    0.5665155440360311 Bi
   0.6471576380004377    0.0355340317515219    0.4870641414761425 Bi
   0.6660255625287396    0.1298736543930314    0.4870641414761425 Bi
   0.6848934870570413    0.2242132770345408    0.4870641414761425 Bi
   0.7037614115853436    0.3185528996760503    0.4870641414761425 Bi
   0.7226293361136455    0.4128925223175596    0.4870641414761425 Bi
   0.7414972606419471    0.5072321449590691    0.4870641414761425 Bi
   0.7603651851702490    0.6015717676005786    0.4870641414761425 Bi
   0.7792331096985508    0.6959113902420880    0.4870641414761425 Bi
   0.7981010342268529    0.7902510128835974    0.4870641414761425 Bi
   0.8169689587551546    0.8845906355251067    0.4870641414761425 Bi
   0.4396104681891171    0.9977981826949180    0.4870641414761425 Bi
   0.4584783927174189    0.0921378053364276    0.4870641414761425 Bi
   0.4773463172457208    0.1864774279779370    0.4870641414761425 Bi
   0.4962142417740228    0.2808170506194465    0.4870641414761425 Bi
   0.5150821663023247    0.3751566732609558    0.4870641414761425 Bi
   0.5339500908306266    0.4694962959024653    0.4870641414761425 Bi
   0.5528180153589285    0.5638359185439750    0.4870641414761425 Bi
   0.5716859398872302    0.6581755411854842    0.4870641414761425 Bi
   0.5905538644155321    0.7525151638269936    0.4870641414761425 Bi
   0.6094217889438340    0.8468547864685030    0.4870641414761425 Bi
   0.6282897134721364    0.9411944091100126    0.4870641414761425 Bi
   0.2509312229060980    0.0544019562798237    0.4870641414761425 Bi
   0.2697991474344000    0.1487415789213332    0.4870641414761425 Bi
   0.2886670719627019    0.2430812015628426    0.4870641414761425 Bi
   0.3075349964910038    0.3374208242043520    0.4870641414761425 Bi
   0.3264029210193058    0.4317604468458613    0.4870641414761425 Bi
   0.3452708455476077    0.5261000694873710    0.4870641414761425 Bi
   0.3641387700759096    0.6204396921288804    0.4870641414761425 Bi
   0.3830066946042113    0.7147793147703898    0.4870641414761425 Bi
   0.4018746191325133    0.8091189374118992    0.4870641414761425 Bi
   0.4207425436608153    0.9034585600534086    0.4870641414761425 Bi
   0.0433840530947774    0.0166661072232199    0.4870641414761425 Bi
   0.0622519776230792    0.1110057298647293    0.4870641414761425 Bi
   0.0811199021513811    0.2053453525062388    0.4870641414761425 Bi
   0.0999878266796831    0.2996849751477483    0.4870641414761425 Bi
   0.1188557512079850    0.3940245977892576    0.4870641414761425 Bi
   0.1377236757362868    0.4883642204307671    0.4870641414761425 Bi
   0.1565916002645888    0.5827038430722766    0.4870641414761425 Bi
   0.1754595247928908    0.6770434657137860    0.4870641414761425 Bi
   0.1943274493211927    0.7713830883552956    0.4870641414761425 Bi
   0.2131953738494944    0.8657227109968048    0.4870641414761425 Bi
   0.2320632983777963    0.9600623336383142    0.4870641414761425 Bi
   0.8358368832834566    0.9789302581666162    0.4870641414761425 Bi
   0.8547048078117586    0.0732698808081256    0.4870641414761425 Bi
   0.8735727323400602    0.1676095034496350    0.4870641414761425 Bi
   0.8924406568683622    0.2619491260911445    0.4870641414761425 Bi
   0.9113085813966643    0.3562887487326539    0.4870641414761425 Bi
   0.9301765059249660    0.4506283713741633    0.4870641414761425 Bi
   0.9490444304532679    0.5449679940156729    0.4870641414761425 Bi
   0.9679123549815698    0.6393076166571823    0.4870641414761425 Bi
   0.9867802795098718    0.7336472392986916    0.4870641414761425 Bi
   0.0056482040381737    0.8279868619402010    0.4870641414761425 Bi
   0.0245161285664755    0.9223264845817105    0.4870641414761425 Bi
   0.9945138840653094    0.8681985427518958    0.2000427878291579 Se
   0.1355395250909503    0.9194805940339470    0.2000427878291579 Se
   0.0329754225268478    0.7912754658288186    0.2000427878291579 Se
   0.1740010635524889    0.8425575171108699    0.2000427878291579 Se
   0.3150267045781298    0.8938395683929211    0.2000427878291579 Se
   0.0714369609883862    0.7143523889057419    0.2000427878291579 Se
   0.2124626020140272    0.7656344401877933    0.2000427878291579 Se
   0.3534882430396682    0.8169164914698444    0.2000427878291579 Se
   0.4945138840653093    0.8681985427518959    0.2000427878291579 Se
   0.6355395250909504    0.9194805940339469    0.2000427878291579 Se
   0.9688728584242836    0.5861472607006138    0.2000427878291579 Se
   0.1098984994499246    0.6374293119826651    0.2000427878291579 Se
   0.2509241404755656    0.6887113632647163    0.2000427878291579 Se
   0.3919497815012066    0.7399934145467675    0.2000427878291579 Se
   0.5329754225268477    0.7912754658288189    0.2000427878291579 Se
   0.6740010635524887    0.8425575171108700    0.2000427878291579 Se
   0.8150267045781298    0.8938395683929213    0.2000427878291579 Se
   0.0073343968858221    0.5092241837775368    0.2000427878291579 Se
   0.1483600379114631    0.5605062350595881    0.2000427878291579 Se
   0.2893856789371040    0.6117882863416395    0.2000427878291579 Se
   0.4304113199627450    0.6630703376236906    0.2000427878291579 Se
   0.5714369609883861    0.7143523889057419    0.2000427878291579 Se
   0.7124626020140273    0.7656344401877930    0.2000427878291579 Se
   0.8534882430396684    0.8169164914698444    0.2000427878291579 Se
   0.0457959353473605    0.4323011068544599    0.2000427878291579 Se
   0.1868215763730016    0.4835831581365112    0.2000427878291579 Se
   0.3278472173986425    0.5348652094185624    0.2000427878291579 Se
   0.4688728584242836    0.5861472607006137    0.2000427878291579 Se
   0.6098984994499247    0.6374293119826652    0.2000427878291579 Se
   0.7509241404755653    0.6887113632647163    0.2000427878291579 Se
   0.8919497815012064    0.7399934145467675    0.2000427878291579 Se
   0.0842574738088990    0.3553780299313829    0.2000427878291579 Se
   0.2252831148345401    0.4066600812134342    0.2000427878291579 Se
   0.3663087558601810    0.4579421324954854    0.2000427878291579 Se
   0.5073343968858219    0.5092241837775369    0.2000427878291579 Se
   0.6483600379114631    0.5605062350595883    0.2000427878291579 Se
   0.7893856789371043    0.6117882863416393    0.2000427878291579 Se
   0.9304113199627451    0.6630703376236906    0.2000427878291579 Se
   0.9816933712447965    0.2271729017262546    0.2000427878291579 Se
   0.1227190122704375    0.2784549530083060    0.2000427878291579 Se
   0.2637446532960785    0.3297370042903572    0.2000427878291579 Se
   0.4047702943217194    0.3810190555724085    0.2000427878291579 Se
   0.5457959353473606    0.4323011068544598    0.2000427878291579 Se
   0.6868215763730017    0.4835831581365110    0.2000427878291579 Se
   0.8278472173986425    0.5348652094185625    0.2000427878291579 Se
   0.0201549097063350    0.1502498248031778    0.2000427878291579 Se
   0.1611805507319759    0.2015318760852290    0.2000427878291579 Se
   0.3022061917576169    0.2528139273672803    0.2000427878291579 Se
   0.4432318327832578    0.3040959786493316    0.2000427878291579 Se
   0.5842574738088990    0.3553780299313829    0.2000427878291579 Se
   0.7252831148345401    0.4066600812134342    0.2000427878291579 Se
   0.8663087558601811    0.4579421324954854    0.2000427878291579 Se
   0.0586164481678734    0.0733267478801008    0.2000427878291579 Se
   0.1996420891935144    0.1246087991621521    0.2000427878291579 Se
   0.3406677302191554    0.1758908504442034    0.2000427878291579 Se
   0.4816933712447964    0.2271729017262546    0.2000427878291579 Se
   0.6227190122704374    0.2784549530083060    0.2000427878291579 Se
   0.7637446532960785    0.3297370042903572    0.2000427878291579 Se
   0.9047702943217195    0.3810190555724085    0.2000427878291579 Se
   0.9560523456037708    0.9451216196749728    0.2000427878291579 Se
   0.0970779866294119    0.9964036709570239    0.2000427878291579 Se
   0.2381036276550530    0.0476857222390751    0.2000427878291579 Se
   0.3791292686806939    0.0989677735211265    0.2000427878291579 Se