{'film_sl_vectors': array([[-16.68331135,  -7.22408573,   0.        ],
       [-18.76872527,  39.73247149,   0.        ]]), 'substrate_sl_vectors': array([[  3.46357078,  17.99724171,   0.        ],
       [-43.29463477,   8.99862085,   0.        ]]), 'film_vectors': array([[ 4.17082784,  0.        ,  0.        ],
       [-2.08541392,  3.61204286,  0.        ]]), 'substrate_vectors': array([[ 3.46357078,  0.        ,  0.        ],
       [-1.73178539,  2.99954028,  0.        ]]), 'film_transformation': array([[ 1., 11.],
       [ 0., 53.]]), 'substrate_transformation': array([[ 1., 21.],
       [ 0., 78.]]), 'strain': Strain([[0.00131143 0.00666176 0.        ]
 [0.00666176 0.01375011 0.        ]
 [0.         0.         0.        ]]), 'von_mises_strain': 0.011659811218438213, 'termination': ('default', 'default'), 'film_thickness': 1, 'substrate_thickness': 1, 'signed_angle': -124.30661909703721, 'decomposition_angle': -76.967146910296}