Nb138 Bi192 Se564
1.0
  27.0513525768371217    0.0000000000000000    0.0000000000000017
   7.3171691382878148   26.4995727717691025    0.0000000000000017
   0.0000000000000000    0.0000000000000000   49.9893053307188922
Nb Bi Se
138 192 564
direct
   0.8104569420650235    0.1063917733700345    0.3566429020965913 Nb
   0.8974134638041539    0.1788555414859766    0.3566429020965913 Nb
   0.5930656377171973    0.0918990197468461    0.3566429020965912 Nb
   0.6800221594563280    0.1643627878627882    0.3566429020965913 Nb
   0.7669786811954582    0.2368265559787300    0.3566429020965913 Nb
   0.8539352029345886    0.3092903240946722    0.3566429020965913 Nb
   0.3756743333693714    0.0774062661236577    0.3566429020965912 Nb
   0.4626308551085018    0.1498700342395997    0.3566429020965912 Nb
   0.5495873768476321    0.2223338023555419    0.3566429020965913 Nb
   0.6365438985867625    0.2947975704714839    0.3566429020965913 Nb
   0.7235004203258933    0.3672613385874259    0.3566429020965913 Nb
   0.8104569420650233    0.4397251067033680    0.3566429020965913 Nb
   0.8974134638041539    0.5121888748193097    0.3566429020965913 Nb
   0.1582830290215453    0.0629135125004694    0.3566429020965912 Nb
   0.2452395507606757    0.1353772806164114    0.3566429020965912 Nb
   0.3321960724998062    0.2078410487323535    0.3566429020965912 Nb
   0.4191525942389365    0.2803048168482954    0.3566429020965913 Nb
   0.5061091159780671    0.3527685849642375    0.3566429020965913 Nb
   0.5930656377171977    0.4252323530801795    0.3566429020965913 Nb
   0.6800221594563279    0.4976961211961215    0.3566429020965913 Nb
   0.7669786811954581    0.5701598893120635    0.3566429020965913 Nb
   0.8539352029345891    0.6426236574280054    0.3566429020965913 Nb
   0.9408917246737192    0.0484207588772810    0.3566429020965913 Nb
   0.0278482464128497    0.1208845269932230    0.3566429020965912 Nb
   0.1148047681519802    0.1933482951091650    0.3566429020965912 Nb
   0.2017612898911106    0.2658120632251071    0.3566429020965912 Nb
   0.2887178116302411    0.3382758313410490    0.3566429020965912 Nb
   0.3756743333693714    0.4107395994569911    0.3566429020965913 Nb
   0.4626308551085019    0.4832033675729331    0.3566429020965913 Nb
   0.5495873768476324    0.5556671356888752    0.3566429020965913 Nb
   0.6365438985867626    0.6281309038048171    0.3566429020965913 Nb
   0.7235004203258932    0.7005946719207591    0.3566429020965913 Nb
   0.8104569420650238    0.7730584400367013    0.3566429020965913 Nb
   0.8974134638041542    0.8455222081526430    0.3566429020965912 Nb
   0.9843699855432846    0.2513193096019186    0.3566429020965912 Nb
   0.0713265072824149    0.3237830777178607    0.3566429020965912 Nb
   0.1582830290215454    0.3962468458338027    0.3566429020965912 Nb
   0.2452395507606758    0.4687106139497448    0.3566429020965913 Nb
   0.3321960724998062    0.5411743820656867    0.3566429020965913 Nb
   0.4191525942389368    0.6136381501816287    0.3566429020965913 Nb
   0.5061091159780672    0.6861019182975707    0.3566429020965913 Nb
   0.5930656377171976    0.7585656864135129    0.3566429020965913 Nb
   0.6800221594563278    0.8310294545294550    0.3566429020965913 Nb
   0.7669786811954584    0.9034932226453971    0.3566429020965913 Nb
   0.8539352029345889    0.9759569907613390    0.3566429020965913 Nb
   0.9408917246737194    0.3817540922106143    0.3566429020965913 Nb
   0.0278482464128498    0.4542178603265563    0.3566429020965912 Nb
   0.1148047681519802    0.5266816284424983    0.3566429020965912 Nb
   0.2017612898911105    0.5991453965584403    0.3566429020965913 Nb
   0.2887178116302411    0.6716091646743824    0.3566429020965913 Nb
   0.3756743333693714    0.7440729327903245    0.3566429020965913 Nb
   0.4626308551085022    0.8165367009062664    0.3566429020965913 Nb
   0.5495873768476321    0.8890004690222085    0.3566429020965913 Nb
   0.6365438985867626    0.9614642371381509    0.3566429020965912 Nb
   0.7235004203258931    0.0339280052540927    0.3566429020965913 Nb
   0.9843699855432846    0.5846526429352519    0.3566429020965912 Nb
   0.0713265072824150    0.6571164110511941    0.3566429020965913 Nb
   0.1582830290215455    0.7295801791671359    0.3566429020965913 Nb
   0.2452395507606759    0.8020439472830780    0.3566429020965913 Nb
   0.3321960724998063    0.8745077153990199    0.3566429020965913 Nb
   0.4191525942389369    0.9469714835149621    0.3566429020965913 Nb
   0.5061091159780673    0.0194352516309040    0.3566429020965912 Nb
   0.9408917246737195    0.7150874255439477    0.3566429020965913 Nb
   0.0278482464128499    0.7875511936598895    0.3566429020965913 Nb
   0.1148047681519802    0.8600149617758316    0.3566429020965913 Nb
   0.2017612898911107    0.9324787298917736    0.3566429020965913 Nb
   0.2887178116302410    0.0049424980077158    0.3566429020965912 Nb
   0.9843699855432847    0.9179859762685854    0.3566429020965913 Nb
   0.0713265072824151    0.9904497443845273    0.3566429020965912 Nb
   0.8101987867125268    0.1067187358006390    0.2336917587878816 Nb
   0.8971553084516573    0.1791825039165810    0.2336917587878816 Nb
   0.5928074823647008    0.0922259821774505    0.2336917587878816 Nb
   0.6797640041038313    0.1646897502933924    0.2336917587878816 Nb
   0.7667205258429618    0.2371535184093345    0.2336917587878816 Nb
   0.8536770475820921    0.3096172865252765    0.2336917587878816 Nb
   0.3754161780168747    0.0777332285542621    0.2336917587878816 Nb
   0.4623726997560051    0.1501969966702041    0.2336917587878816 Nb
   0.5493292214951356    0.2226607647861462    0.2336917587878816 Nb
   0.6362857432342660    0.2951245329020881    0.2336917587878816 Nb
   0.7232422649733964    0.3675883010180303    0.2336917587878816 Nb
   0.8101987867125268    0.4400520691339722    0.2336917587878816 Nb
   0.8971553084516575    0.5125158372499142    0.2336917587878816 Nb
   0.1580248736690488    0.0632404749310737    0.2336917587878816 Nb
   0.2449813954081792    0.1357042430470158    0.2336917587878816 Nb
   0.3319379171473097    0.2081680111629577    0.2336917587878816 Nb
   0.4188944388864400    0.2806317792788998    0.2336917587878816 Nb
   0.5058509606255706    0.3530955473948417    0.2336917587878816 Nb
   0.5928074823647010    0.4255593155107839    0.2336917587878816 Nb
   0.6797640041038313    0.4980230836267258    0.2336917587878816 Nb
   0.7667205258429619    0.5704868517426679    0.2336917587878816 Nb
   0.8536770475820926    0.6429506198586098    0.2336917587878816 Nb
   0.9406335693212227    0.0487477213078853    0.2336917587878816 Nb
   0.0275900910603532    0.1212114894238273    0.2336917587878816 Nb
   0.1145466127994836    0.1936752575397694    0.2336917587878816 Nb
   0.2015031345386141    0.2661390256557114    0.2336917587878816 Nb
   0.2884596562777444    0.3386027937716534    0.2336917587878816 Nb
   0.3754161780168749    0.4110665618875954    0.2336917587878816 Nb
   0.4623726997560054    0.4835303300035377    0.2336917587878816 Nb
   0.5493292214951357    0.5559940981194795    0.2336917587878816 Nb
   0.6362857432342662    0.6284578662354214    0.2336917587878816 Nb
   0.7232422649733966    0.7009216343513635    0.2336917587878816 Nb
   0.8101987867125270    0.7733854024673055    0.2336917587878816 Nb
   0.8971553084516575    0.8458491705832474    0.2336917587878816 Nb
   0.9841118301907880    0.2516462720325229    0.2336917587878816 Nb
   0.0710683519299184    0.3241100401484651    0.2336917587878816 Nb
   0.1580248736690488    0.3965738082644070    0.2336917587878816 Nb
   0.2449813954081793    0.4690375763803490    0.2336917587878816 Nb
   0.3319379171473097    0.5415013444962911    0.2336917587878816 Nb
   0.4188944388864402    0.6139651126122331    0.2336917587878816 Nb
   0.5058509606255707    0.6864288807281751    0.2336917587878816 Nb
   0.5928074823647009    0.7588926488441172    0.2336917587878816 Nb
   0.6797640041038313    0.8313564169600592    0.2336917587878816 Nb
   0.7667205258429618    0.9038201850760013    0.2336917587878816 Nb
   0.8536770475820922    0.9762839531919432    0.2336917587878816 Nb
   0.9406335693212228    0.3820810546412187    0.2336917587878816 Nb
   0.0275900910603533    0.4545448227571607    0.2336917587878816 Nb
   0.1145466127994837    0.5270085908731026    0.2336917587878816 Nb
   0.2015031345386141    0.5994723589890447    0.2336917587878816 Nb
   0.2884596562777446    0.6719361271049867    0.2336917587878816 Nb
   0.3754161780168749    0.7443998952209288    0.2336917587878816 Nb
   0.4623726997560056    0.8168636633368708    0.2336917587878816 Nb
   0.5493292214951356    0.8893274314528128    0.2336917587878816 Nb
   0.6362857432342661    0.9617911995687549    0.2336917587878816 Nb
   0.7232422649733966    0.0342549676846969    0.2336917587878816 Nb
   0.9841118301907881    0.5849796053658562    0.2336917587878816 Nb
   0.0710683519299185    0.6574433734817984    0.2336917587878816 Nb
   0.1580248736690489    0.7299071415977403    0.2336917587878816 Nb
   0.2449813954081793    0.8023709097136824    0.2336917587878816 Nb
   0.3319379171473099    0.8748346778296243    0.2336917587878816 Nb
   0.4188944388864400    0.9472984459455663    0.2336917587878816 Nb
   0.5058509606255706    0.0197622140615081    0.2336917587878816 Nb
   0.9406335693212228    0.7154143879745519    0.2336917587878816 Nb
   0.0275900910603533    0.7878781560904939    0.2336917587878816 Nb
   0.1145466127994838    0.8603419242064360    0.2336917587878816 Nb
   0.2015031345386141    0.9328056923223780    0.2336917587878816 Nb
   0.2884596562777444    0.0052694604383199    0.2336917587878816 Nb
   0.9841118301907882    0.9183129386991896    0.2336917587878816 Nb
   0.0710683519299186    0.9907767068151316    0.2336917587878816 Nb
   0.7420845272736885    0.2012744938383419    0.7671208852038272 Bi
   0.7629178606070217    0.3471078271716752    0.7671208852038272 Bi
   0.7837511939403551    0.4929411605050086    0.7671208852038272 Bi
   0.8045845272736886    0.6387744938383418    0.7671208852038272 Bi
   0.8254178606070218    0.7846078271716752    0.7671208852038272 Bi
   0.8462511939403552    0.9304411605050086    0.7671208852038272 Bi
   0.5962511939403551    0.1804411605050085    0.7671208852038272 Bi
   0.6170845272736887    0.3262744938383419    0.7671208852038272 Bi
   0.6379178606070220    0.4721078271716753    0.7671208852038272 Bi
   0.6587511939403551    0.6179411605050086    0.7671208852038272 Bi
   0.6795845272736882    0.7637744938383418    0.7671208852038272 Bi
   0.7004178606070220    0.9096078271716751    0.7671208852038272 Bi
   0.7212511939403552    0.0554411605050085    0.7671208852038272 Bi
   0.4504178606070221    0.1596078271716752    0.7671208852038272 Bi
   0.4712511939403554    0.3054411605050085    0.7671208852038272 Bi
   0.4920845272736886    0.4512744938383418    0.7671208852038272 Bi
   0.5129178606070218    0.5971078271716752    0.7671208852038272 Bi
   0.5337511939403551    0.7429411605050086    0.7671208852038272 Bi
   0.5545845272736886    0.8887744938383418    0.7671208852038272 Bi
   0.5754178606070219    0.0346078271716752    0.7671208852038272 Bi
   0.3045845272736887    0.1387744938383419    0.7671208852038272 Bi
   0.3254178606070219    0.2846078271716753    0.7671208852038272 Bi
   0.3462511939403554    0.4304411605050086    0.7671208852038272 Bi
   0.3670845272736887    0.5762744938383421    0.7671208852038272 Bi
   0.3879178606070220    0.7221078271716752    0.7671208852038272 Bi
   0.4087511939403553    0.8679411605050086    0.7671208852038272 Bi
   0.4295845272736886    0.0137744938383420    0.7671208852038272 Bi
   0.1587511939403554    0.1179411605050086    0.7671208852038272 Bi
   0.1795845272736887    0.2637744938383419    0.7671208852038272 Bi
   0.2004178606070219    0.4096078271716753    0.7671208852038272 Bi
   0.2212511939403554    0.5554411605050085    0.7671208852038272 Bi
   0.2420845272736888    0.7012744938383418    0.7671208852038272 Bi
   0.2629178606070221    0.8471078271716750    0.7671208852038272 Bi
   0.2837511939403554    0.9929411605050085    0.7671208852038272 Bi
   0.0129178606070220    0.0971078271716752    0.7671208852038272 Bi
   0.0337511939403553    0.2429411605050086    0.7671208852038272 Bi
   0.0545845272736887    0.3887744938383418    0.7671208852038272 Bi
   0.0754178606070219    0.5346078271716752    0.7671208852038272 Bi
   0.0962511939403552    0.6804411605050088    0.7671208852038272 Bi
   0.1170845272736887    0.8262744938383418    0.7671208852038272 Bi
   0.1379178606070220    0.9721078271716752    0.7671208852038272 Bi
   0.8670845272736887    0.0762744938383419    0.7671208852038272 Bi
   0.8879178606070219    0.2221078271716752    0.7671208852038272 Bi
   0.9087511939403552    0.3679411605050085    0.7671208852038272 Bi
   0.9295845272736886    0.5137744938383420    0.7671208852038272 Bi
   0.9504178606070219    0.6596078271716753    0.7671208852038272 Bi
   0.9712511939403553    0.8054411605050086    0.7671208852038272 Bi
   0.9920845272736887    0.9512744938383420    0.7671208852038272 Bi
   0.8337025214162926    0.1663903495765152    0.6873709670584138 Bi
   0.8545358547496258    0.3122236829098485    0.6873709670584138 Bi
   0.8753691880829592    0.4580570162431820    0.6873709670584138 Bi
   0.8962025214162929    0.6038903495765152    0.6873709670584138 Bi
   0.9170358547496260    0.7497236829098485    0.6873709670584138 Bi
   0.9378691880829594    0.8955570162431821    0.6873709670584138 Bi
   0.6878691880829592    0.1455570162431818    0.6873709670584138 Bi
   0.7087025214162928    0.2913903495765152    0.6873709670584138 Bi
   0.7295358547496259    0.4372236829098486    0.6873709670584138 Bi
   0.7503691880829593    0.5830570162431820    0.6873709670584138 Bi
   0.7712025214162926    0.7288903495765151    0.6873709670584138 Bi
   0.7920358547496259    0.8747236829098487    0.6873709670584138 Bi
   0.8128691880829594    0.0205570162431821    0.6873709670584138 Bi
   0.5420358547496259    0.1247236829098485    0.6873709670584138 Bi
   0.5628691880829595    0.2705570162431818    0.6873709670584138 Bi
   0.5837025214162929    0.4163903495765151    0.6873709670584138 Bi
   0.6045358547496260    0.5622236829098485    0.6873709670584138 Bi
   0.6253691880829592    0.7080570162431820    0.6873709670584138 Bi
   0.6462025214162925    0.8538903495765150    0.6873709670584138 Bi
   0.6670358547496259    0.9997236829098486    0.6873709670584138 Bi
   0.3962025214162927    0.1038903495765152    0.6873709670584138 Bi
   0.4170358547496261    0.2497236829098486    0.6873709670584138 Bi
   0.4378691880829594    0.3955570162431819    0.6873709670584138 Bi
   0.4587025214162928    0.5413903495765152    0.6873709670584138 Bi
   0.4795358547496261    0.6872236829098485    0.6873709670584138 Bi
   0.5003691880829594    0.8330570162431818    0.6873709670584138 Bi
   0.5212025214162925    0.9788903495765153    0.6873709670584138 Bi
   0.2503691880829594    0.0830570162431819    0.6873709670584138 Bi
   0.2712025214162928    0.2288903495765152    0.6873709670584138 Bi
   0.2920358547496260    0.3747236829098486    0.6873709670584138 Bi
   0.3128691880829594    0.5205570162431817    0.6873709670584138 Bi
   0.3337025214162928    0.6663903495765151    0.6873709670584138 Bi
   0.3545358547496262    0.8122236829098483    0.6873709670584138 Bi
   0.3753691880829593    0.9580570162431818    0.6873709670584138 Bi
   0.1045358547496261    0.0622236829098486    0.6873709670584138 Bi
   0.1253691880829594    0.2080570162431819    0.6873709670584138 Bi
   0.1462025214162928    0.3538903495765153    0.6873709670584138 Bi
   0.1670358547496261    0.4997236829098486    0.6873709670584138 Bi
   0.1878691880829594    0.6455570162431820    0.6873709670584138 Bi
   0.2087025214162928    0.7913903495765150    0.6873709670584138 Bi
   0.2295358547496258    0.9372236829098486    0.6873709670584138 Bi
   0.9587025214162928    0.0413903495765152    0.6873709670584138 Bi
   0.9795358547496261    0.1872236829098486    0.6873709670584138 Bi
   0.0003691880829594    0.3330570162431818    0.6873709670584138 Bi
   0.0212025214162928    0.4788903495765152    0.6873709670584138 Bi
   0.0420358547496262    0.6247236829098485    0.6873709670584138 Bi
   0.0628691880829594    0.7705570162431821    0.6873709670584138 Bi
   0.0837025214162927    0.9163903495765153    0.6873709670584138 Bi
   0.8352694449713226    0.1640212580484936    0.5665155440360311 Bi
   0.8561027783046561    0.3098545913818270    0.5665155440360311 Bi
   0.8769361116379895    0.4556879247151603    0.5665155440360311 Bi
   0.8977694449713224    0.6015212580484935    0.5665155440360311 Bi
   0.9186027783046560    0.7473545913818268    0.5665155440360312 Bi
   0.9394361116379891    0.8931879247151604    0.5665155440360312 Bi
   0.6894361116379893    0.1431879247151603    0.5665155440360311 Bi
   0.7102694449713227    0.2890212580484937    0.5665155440360311 Bi
   0.7311027783046561    0.4348545913818270    0.5665155440360311 Bi
   0.7519361116379893    0.5806879247151604    0.5665155440360311 Bi
   0.7727694449713228    0.7265212580484937    0.5665155440360311 Bi
   0.7936027783046559    0.8723545913818270    0.5665155440360312 Bi
   0.8144361116379893    0.0181879247151604    0.5665155440360311 Bi
   0.5436027783046564    0.1223545913818270    0.5665155440360311 Bi
   0.5644361116379895    0.2681879247151603    0.5665155440360311 Bi
   0.5852694449713229    0.4140212580484937    0.5665155440360311 Bi
   0.6061027783046560    0.5598545913818269    0.5665155440360311 Bi
   0.6269361116379893    0.7056879247151603    0.5665155440360311 Bi
   0.6477694449713227    0.8515212580484935    0.5665155440360311 Bi
   0.6686027783046562    0.9973545913818269    0.5665155440360311 Bi
   0.3977694449713228    0.1015212580484936    0.5665155440360311 Bi
   0.4186027783046563    0.2473545913818270    0.5665155440360311 Bi
   0.4394361116379896    0.3931879247151603    0.5665155440360311 Bi
   0.4602694449713230    0.5390212580484935    0.5665155440360311 Bi
   0.4811027783046560    0.6848545913818270    0.5665155440360311 Bi
   0.5019361116379893    0.8306879247151604    0.5665155440360311 Bi
   0.5227694449713227    0.9765212580484937    0.5665155440360311 Bi
   0.2519361116379896    0.0806879247151603    0.5665155440360311 Bi
   0.2727694449713229    0.2265212580484936    0.5665155440360311 Bi
   0.2936027783046561    0.3723545913818270    0.5665155440360311 Bi
   0.3144361116379895    0.5181879247151603    0.5665155440360311 Bi
   0.3352694449713230    0.6640212580484937    0.5665155440360311 Bi
   0.3561027783046563    0.8098545913818269    0.5665155440360311 Bi
   0.3769361116379895    0.9556879247151604    0.5665155440360311 Bi
   0.1061027783046563    0.0598545913818270    0.5665155440360311 Bi
   0.1269361116379896    0.2056879247151603    0.5665155440360311 Bi
   0.1477694449713229    0.3515212580484937    0.5665155440360311 Bi
   0.1686027783046563    0.4973545913818269    0.5665155440360311 Bi
   0.1894361116379896    0.6431879247151602    0.5665155440360311 Bi
   0.2102694449713229    0.7890212580484937    0.5665155440360311 Bi
   0.2311027783046563    0.9348545913818270    0.5665155440360311 Bi
   0.9602694449713230    0.0390212580484937    0.5665155440360311 Bi
   0.9811027783046563    0.1848545913818270    0.5665155440360311 Bi
   0.0019361116379896    0.3306879247151604    0.5665155440360311 Bi
   0.0227694449713229    0.4765212580484935    0.5665155440360311 Bi
   0.0436027783046562    0.6223545913818270    0.5665155440360311 Bi
   0.0644361116379896    0.7681879247151604    0.5665155440360311 Bi
   0.0852694449713229    0.9140212580484937    0.5665155440360311 Bi
   0.7802588420182447    0.1089117963371225    0.4870641414761425 Bi
   0.8010921753515777    0.2547451296704558    0.4870641414761426 Bi
   0.8219255086849110    0.4005784630037891    0.4870641414761426 Bi
   0.8427588420182445    0.5464117963371224    0.4870641414761426 Bi
   0.8635921753515780    0.6922451296704557    0.4870641414761426 Bi
   0.8844255086849110    0.8380784630037891    0.4870641414761426 Bi
   0.6344255086849108    0.0880784630037891    0.4870641414761425 Bi
   0.6552588420182442    0.2339117963371224    0.4870641414761425 Bi
   0.6760921753515777    0.3797451296704558    0.4870641414761426 Bi
   0.6969255086849111    0.5255784630037891    0.4870641414761426 Bi
   0.7177588420182442    0.6714117963371223    0.4870641414761426 Bi
   0.7385921753515773    0.8172451296704558    0.4870641414761426 Bi
   0.7594255086849113    0.9630784630037892    0.4870641414761425 Bi
   0.4885921753515777    0.0672451296704558    0.4870641414761425 Bi
   0.5094255086849109    0.2130784630037891    0.4870641414761425 Bi
   0.5302588420182444    0.3589117963371224    0.4870641414761425 Bi
   0.5510921753515776    0.5047451296704557    0.4870641414761426 Bi
   0.5719255086849111    0.6505784630037891    0.4870641414761426 Bi
   0.5927588420182446    0.7964117963371224    0.4870641414761426 Bi
   0.6135921753515776    0.9422451296704559    0.4870641414761426 Bi
   0.3427588420182444    0.0464117963371224    0.4870641414761425 Bi
   0.3635921753515776    0.1922451296704558    0.4870641414761425 Bi
   0.3844255086849111    0.3380784630037890    0.4870641414761425 Bi
   0.4052588420182444    0.4839117963371224    0.4870641414761425 Bi
   0.4260921753515776    0.6297451296704556    0.4870641414761426 Bi
   0.4469255086849108    0.7755784630037892    0.4870641414761426 Bi
   0.4677588420182445    0.9214117963371223    0.4870641414761426 Bi
   0.1969255086849111    0.0255784630037891    0.4870641414761425 Bi
   0.2177588420182443    0.1714117963371224    0.4870641414761425 Bi
   0.2385921753515777    0.3172451296704558    0.4870641414761425 Bi
   0.2594255086849111    0.4630784630037891    0.4870641414761425 Bi
   0.2802588420182444    0.6089117963371224    0.4870641414761425 Bi
   0.3010921753515777    0.7547451296704557    0.4870641414761426 Bi
   0.3219255086849110    0.9005784630037892    0.4870641414761426 Bi
   0.0510921753515778    0.0047451296704558    0.4870641414761426 Bi
   0.0719255086849111    0.1505784630037891    0.4870641414761425 Bi
   0.0927588420182445    0.2964117963371224    0.4870641414761425 Bi
   0.1135921753515777    0.4422451296704557    0.4870641414761425 Bi
   0.1344255086849110    0.5880784630037891    0.4870641414761425 Bi
   0.1552588420182444    0.7339117963371226    0.4870641414761425 Bi
   0.1760921753515776    0.8797451296704558    0.4870641414761426 Bi
   0.9052588420182445    0.9839117963371224    0.4870641414761425 Bi
   0.9260921753515780    0.1297451296704558    0.4870641414761426 Bi
   0.9469255086849111    0.2755784630037891    0.4870641414761426 Bi
   0.9677588420182445    0.4214117963371224    0.4870641414761425 Bi
   0.9885921753515777    0.5672451296704557    0.4870641414761425 Bi
   0.0094255086849110    0.7130784630037892    0.4870641414761425 Bi
   0.0302588420182443    0.8589117963371224    0.4870641414761425 Bi
   0.7956847720094037    0.0390877590847024    0.2000427878291580 Se
   0.8826412937485342    0.1115515272006443    0.2000427878291580 Se
   0.5782934676615776    0.0245950054615139    0.2000427878291580 Se
   0.6652499894007081    0.0970587735774559    0.2000427878291580 Se
   0.7522065111398385    0.1695225416933979    0.2000427878291580 Se
   0.8391630328789688    0.2419863098093401    0.2000427878291580 Se
   0.3609021633137515    0.0101022518383256    0.2000427878291580 Se
   0.4478586850528819    0.0825660199542676    0.2000427878291580 Se
   0.5348152067920123    0.1550297880702096    0.2000427878291580 Se
   0.6217717285311428    0.2274935561861517    0.2000427878291580 Se
   0.7087282502702734    0.2999573243020937    0.2000427878291580 Se
   0.7956847720094034    0.3724210924180358    0.2000427878291580 Se
   0.8826412937485343    0.4448848605339777    0.2000427878291580 Se
   0.1435108589659254    0.9956094982151373    0.2000427878291580 Se
   0.2304673807050559    0.0680732663310793    0.2000427878291580 Se
   0.3174239024441863    0.1405370344470213    0.2000427878291580 Se
   0.4043804241833168    0.2130008025629632    0.2000427878291580 Se
   0.4913369459224471    0.2854645706789052    0.2000427878291580 Se
   0.5782934676615777    0.3579283387948474    0.2000427878291580 Se
   0.6652499894007078    0.4303921069107894    0.2000427878291580 Se
   0.7522065111398384    0.5028558750267313    0.2000427878291580 Se
   0.8391630328789692    0.5753196431426734    0.2000427878291580 Se
   0.9261195546180995    0.9811167445919489    0.2000427878291580 Se
   0.0130760763572299    0.0535805127078908    0.2000427878291580 Se
   0.1000325980963603    0.1260442808238329    0.2000427878291580 Se
   0.1869891198354907    0.1985080489397749    0.2000427878291580 Se
   0.2739456415746211    0.2709718170557168    0.2000427878291580 Se
   0.3609021633137516    0.3434355851716589    0.2000427878291580 Se
   0.4478586850528820    0.4158993532876010    0.2000427878291580 Se
   0.5348152067920124    0.4883631214035431    0.2000427878291580 Se
   0.6217717285311430    0.5608268895194850    0.2000427878291580 Se
   0.7087282502702733    0.6332906576354270    0.2000427878291580 Se
   0.7956847720094038    0.7057544257513690    0.2000427878291580 Se
   0.8826412937485343    0.7782181938673108    0.2000427878291580 Se
   0.9695978154876647    0.1840152953165865    0.2000427878291580 Se
   0.0565543372267951    0.2564790634325285    0.2000427878291580 Se
   0.1435108589659256    0.3289428315484705    0.2000427878291580 Se
   0.2304673807050559    0.4014065996644126    0.2000427878291580 Se
   0.3174239024441864    0.4738703677803546    0.2000427878291580 Se
   0.4043804241833169    0.5463341358962966    0.2000427878291580 Se
   0.4913369459224474    0.6187979040122387    0.2000427878291580 Se
   0.5782934676615777    0.6912616721281809    0.2000427878291580 Se
   0.6652499894007078    0.7637254402441228    0.2000427878291580 Se
   0.7522065111398386    0.8361892083600646    0.2000427878291580 Se
   0.8391630328789689    0.9086529764760067    0.2000427878291580 Se
   0.9261195546180994    0.3144500779252820    0.2000427878291580 Se
   0.0130760763572299    0.3869138460412242    0.2000427878291580 Se
   0.1000325980963603    0.4593776141571662    0.2000427878291580 Se
   0.1869891198354908    0.5318413822731082    0.2000427878291580 Se
   0.2739456415746212    0.6043051503890502    0.2000427878291580 Se
   0.3609021633137516    0.6767689185049923    0.2000427878291580 Se
   0.4478586850528821    0.7492326866209345    0.2000427878291580 Se
   0.5348152067920123    0.8216964547368762    0.2000427878291580 Se
   0.6217717285311429    0.8941602228528184    0.2000427878291580 Se
   0.7087282502702732    0.9666239909687602    0.2000427878291580 Se
   0.9695978154876648    0.5173486286499197    0.2000427878291580 Se
   0.0565543372267951    0.5898123967658619    0.2000427878291580 Se
   0.1435108589659256    0.6622761648818039    0.2000427878291580 Se
   0.2304673807050559    0.7347399329977459    0.2000427878291580 Se
   0.3174239024441864    0.8072037011136878    0.2000427878291580 Se
   0.4043804241833168    0.8796674692296300    0.2000427878291580 Se
   0.4913369459224474    0.9521312373455717    0.2000427878291580 Se
   0.9261195546180996    0.6477834112586154    0.2000427878291580 Se
   0.0130760763572299    0.7202471793745575    0.2000427878291580 Se
   0.1000325980963604    0.7927109474904996    0.2000427878291580 Se
   0.1869891198354909    0.8651747156064415    0.2000427878291580 Se
   0.2739456415746214    0.9376384837223836    0.2000427878291580 Se
   0.9695978154876649    0.8506819619832532    0.2000427878291580 Se
   0.0565543372267954    0.9231457300991951    0.2000427878291580 Se
   0.8684179933829139    0.0435878632903518    0.3229896502366213 Se
   0.9553745151220441    0.1160516314062938    0.3229896502366214 Se
   0.6510266890350878    0.0290951096671633    0.3229896502366213 Se
   0.7379832107742181    0.1015588777831053    0.3229896502366213 Se
   0.8249397325133485    0.1740226458990474    0.3229896502366213 Se
   0.9118962542524791    0.2464864140149895    0.3229896502366214 Se
   0.4336353846872618    0.0146023560439749    0.3229896502366213 Se
   0.5205919064263922    0.0870661241599169    0.3229896502366213 Se
   0.6075484281655227    0.1595298922758590    0.3229896502366213 Se
   0.6945049499046532    0.2319936603918009    0.3229896502366213 Se
   0.7814614716437833    0.3044574285077430    0.3229896502366214 Se
   0.8684179933829137    0.3769211966236851    0.3229896502366214 Se
   0.9553745151220442    0.4493849647396272    0.3229896502366214 Se
   0.2162440803394357    0.0001096024207865    0.3229896502366213 Se
   0.3032006020785661    0.0725733705367286    0.3229896502366213 Se
   0.3901571238176966    0.1450371386526706    0.3229896502366213 Se
   0.4771136455568269    0.2175009067686126    0.3229896502366213 Se
   0.5640701672959575    0.2899646748845546    0.3229896502366213 Se
   0.6510266890350880    0.3624284430004967    0.3229896502366214 Se
   0.7379832107742181    0.4348922111164388    0.3229896502366214 Se
   0.8249397325133484    0.5073559792323807    0.3229896502366214 Se
   0.9118962542524791    0.5798197473483229    0.3229896502366214 Se
   0.9988527759916096    0.9856168487975981    0.3229896502366213 Se
   0.0858092977307401    0.0580806169135402    0.3229896502366213 Se
   0.1727658194698705    0.1305443850294822    0.3229896502366213 Se
   0.2597223412090010    0.2030081531454242    0.3229896502366213 Se
   0.3466788629481313    0.2754719212613662    0.3229896502366213 Se
   0.4336353846872618    0.3479356893773083    0.3229896502366213 Se
   0.5205919064263921    0.4203994574932503    0.3229896502366213 Se
   0.6075484281655227    0.4928632256091924    0.3229896502366214 Se
   0.6945049499046529    0.5653269937251343    0.3229896502366214 Se
   0.7814614716437835    0.6377907618410764    0.3229896502366214 Se