{'film_sl_vectors': array([[ 14.59789743,  10.83612859,  -0.        ],
       [-16.68331135,  36.12042863,   0.        ]]), 'substrate_sl_vectors': array([[-13.85428313, -11.99816114,  -0.        ],
       [-31.17213704,  23.99632228,   0.        ]]), 'film_vectors': array([[ 4.17082784,  0.        ,  0.        ],
       [-2.08541392,  3.61204286,  0.        ]]), 'substrate_vectors': array([[ 3.46357078,  0.        ,  0.        ],
       [-1.73178539,  2.99954028,  0.        ]]), 'film_transformation': array([[ 1., 10.],
       [ 0., 47.]]), 'substrate_transformation': array([[ 1., 12.],
       [ 0., 68.]]), 'strain': Strain([[ 0.00589097  0.00747989  0.        ]
 [ 0.00747989 -0.0079491   0.        ]
 [ 0.          0.          0.        ]]), 'von_mises_strain': 0.011786357505157096, 'termination': ('default', 'default'), 'film_thickness': 1, 'substrate_thickness': 1, 'signed_angle': -175.69338090743585, 'decomposition_angle': -102.7735070792704}