Nb134 Bi184 Se544
1.0
  19.2843459667862440    0.0000000000000000    0.0000000000000012
   2.1772648656688536   36.0951337008923048    0.0000000000000022
   0.0000000000000000    0.0000000000000000   49.9893053307188922
Nb Bi Se
134 184 544
direct
   0.0218015636817006    0.0132409393756878    0.3566429020965912 Nb
   0.1262791756219991    0.0878678050473296    0.3566429020965912 Nb
   0.3053836532339395    0.0729424319130012    0.3566429020965912 Nb
   0.4844881308458797    0.0580170587786728    0.3566429020965912 Nb
   0.6635926084578199    0.0430916856443444    0.3566429020965912 Nb
   0.8426970860697603    0.0281663125100161    0.3566429020965912 Nb
   0.0516523099503573    0.1774200438532997    0.3566429020965912 Nb
   0.2307567875622977    0.1624946707189713    0.3566429020965912 Nb
   0.4098612651742378    0.1475692975846430    0.3566429020965912 Nb
   0.5889657427861784    0.1326439244503146    0.3566429020965912 Nb
   0.7680702203981186    0.1177185513159862    0.3566429020965912 Nb
   0.9471746980100587    0.1027931781816578    0.3566429020965912 Nb
   0.1561299218906558    0.2520469095249416    0.3566429020965912 Nb
   0.3352343995025961    0.2371215363906131    0.3566429020965912 Nb
   0.5143388771145365    0.2221961632562848    0.3566429020965912 Nb
   0.6934433547264768    0.2072707901219564    0.3566429020965912 Nb
   0.8725478323384169    0.1923454169876280    0.3566429020965912 Nb
   0.0815030562190139    0.3415991483309117    0.3566429020965912 Nb
   0.2606075338309543    0.3266737751965832    0.3566429020965912 Nb
   0.4397120114428947    0.3117484020622549    0.3566429020965912 Nb
   0.6188164890548351    0.2968230289279266    0.3566429020965912 Nb
   0.7979209666667753    0.2818976557935982    0.3566429020965912 Nb
   0.9770254442787155    0.2669722826592698    0.3566429020965912 Nb
   0.1859806681593125    0.4162260140025534    0.3566429020965912 Nb
   0.3650851457712528    0.4013006408682250    0.3566429020965912 Nb
   0.5441896233831932    0.3863752677338967    0.3566429020965912 Nb
   0.7232941009951332    0.3714498945995683    0.3566429020965912 Nb
   0.9023985786070738    0.3565245214652399    0.3566429020965913 Nb
   0.1113538024876707    0.5057782528085236    0.3566429020965912 Nb
   0.2904582800996108    0.4908528796741952    0.3566429020965912 Nb
   0.4695627577115514    0.4759275065398669    0.3566429020965912 Nb
   0.6486672353234917    0.4610021334055385    0.3566429020965912 Nb
   0.8277717129354323    0.4460767602712102    0.3566429020965913 Nb
   0.0068761905473723    0.4311513871368817    0.3566429020965912 Nb
   0.0367269368160289    0.5953304916144936    0.3566429020965912 Nb
   0.2158314144279693    0.5804051184801652    0.3566429020965912 Nb
   0.3949358920399095    0.5654797453458370    0.3566429020965912 Nb
   0.5740403696518501    0.5505543722115087    0.3566429020965913 Nb
   0.7531448472637904    0.5356289990771803    0.3566429020965913 Nb
   0.9322493248757304    0.5207036259428519    0.3566429020965913 Nb
   0.1412045487563273    0.6699573572861356    0.3566429020965912 Nb
   0.3203090263682679    0.6550319841518072    0.3566429020965912 Nb
   0.4994135039802080    0.6401066110174787    0.3566429020965913 Nb
   0.6785179815921485    0.6251812378831505    0.3566429020965913 Nb
   0.8576224592040886    0.6102558647488221    0.3566429020965913 Nb
   0.0665776830846856    0.7595095960921058    0.3566429020965912 Nb
   0.2456821606966261    0.7445842229577773    0.3566429020965913 Nb
   0.4247866383085662    0.7296588498234489    0.3566429020965913 Nb
   0.6038911159205066    0.7147334766891207    0.3566429020965913 Nb
   0.7829955935324470    0.6998081035547922    0.3566429020965913 Nb
   0.9621000711443871    0.6848827304204639    0.3566429020965912 Nb
   0.1710552950249843    0.8341364617637473    0.3566429020965913 Nb
   0.3501597726369245    0.8192110886294189    0.3566429020965913 Nb
   0.5292642502488649    0.8042857154950906    0.3566429020965913 Nb
   0.7083687278608053    0.7893603423607622    0.3566429020965913 Nb
   0.8874732054727452    0.7744349692264341    0.3566429020965913 Nb
   0.0964284293533424    0.9236887005697176    0.3566429020965913 Nb
   0.2755329069652825    0.9087633274353891    0.3566429020965913 Nb
   0.4546373845772229    0.8938379543010611    0.3566429020965913 Nb
   0.6337418621891632    0.8789125811667327    0.3566429020965913 Nb
   0.8128463398011038    0.8639872080324040    0.3566429020965912 Nb
   0.9919508174130444    0.8490618348980760    0.3566429020965913 Nb
   0.2009060412936407    0.9983155662413594    0.3566429020965912 Nb
   0.3800105189055812    0.9833901931070310    0.3566429020965912 Nb
   0.5591149965175216    0.9684648199727026    0.3566429020965912 Nb
   0.7382194741294621    0.9535394468383741    0.3566429020965912 Nb
   0.9173239517414020    0.9386140737040460    0.3566429020965912 Nb
   0.0219009327690870    0.0135037045639146    0.2336917587878816 Nb
   0.1263785447093855    0.0881305702355564    0.2336917587878816 Nb
   0.3054830223213259    0.0732051971012280    0.2336917587878816 Nb
   0.4845874999332662    0.0582798239668997    0.2336917587878816 Nb
   0.6636919775452066    0.0433544508325713    0.2336917587878816 Nb
   0.8427964551571469    0.0284290776982429    0.2336917587878816 Nb
   0.0517516790377437    0.1776828090415265    0.2336917587878816 Nb
   0.2308561566496840    0.1627574359071982    0.2336917587878816 Nb
   0.4099606342616244    0.1478320627728698    0.2336917587878816 Nb
   0.5890651118735648    0.1329066896385415    0.2336917587878816 Nb
   0.7681695894855050    0.1179813165042131    0.2336917587878816 Nb
   0.9472740670974452    0.1030559433698847    0.2336917587878816 Nb
   0.1562292909780422    0.2523096747131683    0.2336917587878816 Nb
   0.3353337685899825    0.2373843015788400    0.2336917587878816 Nb
   0.5144382462019229    0.2224589284445116    0.2336917587878816 Nb
   0.6935427238138632    0.2075335553101833    0.2336917587878816 Nb
   0.8726472014258035    0.1926081821758549    0.2336917587878816 Nb
   0.0816024253064004    0.3418619135191386    0.2336917587878816 Nb
   0.2607069029183408    0.3269365403848101    0.2336917587878816 Nb
   0.4398113805302811    0.3120111672504817    0.2336917587878816 Nb
   0.6189158581422213    0.2970857941161533    0.2336917587878816 Nb
   0.7980203357541616    0.2821604209818251    0.2336917587878816 Nb
   0.9771248133661020    0.2672350478474967    0.2336917587878816 Nb
   0.1860800372466990    0.4164887791907802    0.2336917587878816 Nb
   0.3651845148586393    0.4015634060564520    0.2336917587878816 Nb
   0.5442889924705796    0.3866380329221236    0.2336917587878816 Nb
   0.7233934700825199    0.3717126597877952    0.2336917587878816 Nb
   0.9024979476944603    0.3567872866534668    0.2336917587878816 Nb
   0.1114531715750570    0.5060410179967506    0.2336917587878816 Nb
   0.2905576491869974    0.4911156448624220    0.2336917587878816 Nb
   0.4696621267989375    0.4761902717280938    0.2336917587878816 Nb
   0.6487666044108780    0.4612648985937653    0.2336917587878816 Nb
   0.8278710820228186    0.4463395254594370    0.2336917587878816 Nb
   0.0069755596347586    0.4314141523251088    0.2336917587878816 Nb
   0.0368263059034153    0.5955932568027205    0.2336917587878816 Nb
   0.2159307835153557    0.5806678836683922    0.2336917587878816 Nb
   0.3950352611272960    0.5657425105340637    0.2336917587878816 Nb
   0.5741397387392363    0.5508171373997355    0.2336917587878816 Nb
   0.7532442163511766    0.5358917642654073    0.2336917587878816 Nb
   0.9323486939631171    0.5209663911310788    0.2336917587878816 Nb
   0.1413039178437138    0.6702201224743624    0.2336917587878816 Nb
   0.3204083954556541    0.6552947493400342    0.2336917587878816 Nb
   0.4995128730675947    0.6403693762057057    0.2336917587878816 Nb
   0.6786173506795350    0.6254440030713774    0.2336917587878816 Nb
   0.8577218282914753    0.6105186299370491    0.2336917587878816 Nb
   0.0666770521720720    0.7597723612803327    0.2336917587878816 Nb
   0.2457815297840122    0.7448469881460044    0.2336917587878816 Nb
   0.4248860073959527    0.7299216150116757    0.2336917587878816 Nb
   0.6039904850078931    0.7149962418773476    0.2336917587878816 Nb
   0.7830949626198335    0.7000708687430190    0.2336917587878816 Nb
   0.9621994402317736    0.6851454956086908    0.2336917587878816 Nb
   0.1711546641123705    0.8343992269519743    0.2336917587878816 Nb
   0.3502591417243110    0.8194738538176458    0.2336917587878816 Nb
   0.5293636193362514    0.8045484806833177    0.2336917587878816 Nb
   0.7084680969481915    0.7896231075489892    0.2336917587878816 Nb
   0.8875725745601317    0.7746977344146609    0.2336917587878816 Nb
   0.0965277984407287    0.9239514657579444    0.2336917587878816 Nb
   0.2756322760526691    0.9090260926236162    0.2336917587878816 Nb
   0.4547367536646095    0.8941007194892877    0.2336917587878816 Nb
   0.6338412312765496    0.8791753463549594    0.2336917587878816 Nb
   0.8129457088884902    0.8642499732206310    0.2336917587878816 Nb
   0.9920501865004303    0.8493246000863027    0.2336917587878816 Nb
   0.2010054103810273    0.9985783314295862    0.2336917587878816 Nb
   0.3801098879929676    0.9836529582952580    0.2336917587878816 Nb
   0.5592143656049080    0.9687275851609296    0.2336917587878816 Nb
   0.7383188432168484    0.9538022120266011    0.2336917587878816 Nb
   0.9174233208287884    0.9388768388922729    0.2336917587878816 Nb
   0.0759637155002112    0.0279328593682500    0.7671208852038270 Bi
   0.2063984981089069    0.1148893811073805    0.7671208852038272 Bi
   0.4237898024567329    0.0931502506725978    0.7671208852038272 Bi
   0.6411811068045593    0.0714111202378152    0.7671208852038272 Bi
   0.8585724111523851    0.0496719898030326    0.7671208852038272 Bi
   0.1194419763697764    0.2235850332812934    0.7671208852038272 Bi
   0.3368332807176025    0.2018459028465109    0.7671208852038272 Bi
   0.5542245850654286    0.1801067724117283    0.7671208852038272 Bi
   0.7716158894132548    0.1583676419769456    0.7671208852038272 Bi
   0.9890071937610808    0.1366285115421630    0.7671208852038270 Bi
   0.2498767589784721    0.3105415550204240    0.7671208852038272 Bi
   0.4672680633262982    0.2888024245856413    0.7671208852038272 Bi
   0.6846593676741244    0.2670632941508588    0.7671208852038272 Bi
   0.9020506720219502    0.2453241637160760    0.7671208852038272 Bi
   0.1629202372393416    0.4192372071943369    0.7671208852038272 Bi
   0.3803115415871677    0.3974980767595543    0.7671208852038272 Bi
   0.5977028459349939    0.3757589463247718    0.7671208852038272 Bi
   0.8150941502828197    0.3540198158899891    0.7671208852038272 Bi
   0.0324854546306457    0.3322806854552066    0.7671208852038272 Bi
   0.0759637155002112    0.5279328593682499    0.7671208852038272 Bi
   0.2933550198480372    0.5061937289334674    0.7671208852038272 Bi
   0.5107463241958634    0.4844545984986847    0.7671208852038272 Bi
   0.7281376285436895    0.4627154680639022    0.7671208852038272 Bi
   0.9455289328915156    0.4409763376291196    0.7671208852038272 Bi
   0.2063984981089067    0.6148893811073806    0.7671208852038272 Bi
   0.4237898024567330    0.5931502506725979    0.7671208852038272 Bi
   0.6411811068045589    0.5714111202378154    0.7671208852038272 Bi
   0.8585724111523850    0.5496719898030326    0.7671208852038272 Bi
   0.1194419763697763    0.7235850332812934    0.7671208852038272 Bi
   0.3368332807176025    0.7018459028465109    0.7671208852038272 Bi
   0.5542245850654285    0.6801067724117283    0.7671208852038272 Bi
   0.7716158894132547    0.6583676419769455    0.7671208852038272 Bi
   0.9890071937610805    0.6366285115421630    0.7671208852038272 Bi
   0.2498767589784718    0.8105415550204240    0.7671208852038272 Bi
   0.4672680633262982    0.7888024245856414    0.7671208852038272 Bi
   0.6846593676741241    0.7670632941508587    0.7671208852038272 Bi
   0.9020506720219503    0.7453241637160760    0.7671208852038272 Bi
   0.1629202372393416    0.9192372071943368    0.7671208852038272 Bi
   0.3803115415871675    0.8974980767595545    0.7671208852038272 Bi
   0.5977028459349935    0.8757589463247716    0.7671208852038272 Bi
   0.8150941502828197    0.8540198158899891    0.7671208852038272 Bi
   0.0324854546306458    0.8322806854552066    0.7671208852038272 Bi
   0.2933550198480372    0.0061937289334673    0.7671208852038270 Bi
   0.5107463241958633    0.9844545984986848    0.7671208852038272 Bi
   0.7281376285436894    0.9627154680639021    0.7671208852038272 Bi
   0.9455289328915153    0.9409763376291197    0.7671208852038272 Bi
   0.0617630714412180    0.9617319134481438    0.6873709670584139 Bi
   0.1921978540499137    0.0486884351872742    0.6873709670584138 Bi
   0.4095891583977399    0.0269493047524916    0.6873709670584138 Bi
   0.6269804627455657    0.0052101743177090    0.6873709670584138 Bi
   0.8443717670933921    0.9834710438829264    0.6873709670584138 Bi
   0.1052413323107832    0.1573840873611873    0.6873709670584138 Bi
   0.3226326366586094    0.1356449569264046    0.6873709670584138 Bi
   0.5400239410064355    0.1139058264916220    0.6873709670584138 Bi
   0.7574152453542614    0.0921666960568394    0.6873709670584138 Bi
   0.9748065497020876    0.0704275656220568    0.6873709670584138 Bi
   0.2356761149194788    0.2443406091003177    0.6873709670584138 Bi
   0.4530674192673048    0.2226014786655351    0.6873709670584138 Bi
   0.6704587236151311    0.2008623482307525    0.6873709670584138 Bi
   0.8878500279629572    0.1791232177959699    0.6873709670584138 Bi
   0.1487195931803484    0.3530362612742307    0.6873709670584138 Bi
   0.3661108975281745    0.3312971308394481    0.6873709670584138 Bi
   0.5835022018760005    0.3095580004046656    0.6873709670584138 Bi
   0.8008935062238267    0.2878188699698829    0.6873709670584138 Bi
   0.0182848105716525    0.2660797395351003    0.6873709670584138 Bi
   0.0617630714412180    0.4617319134481436    0.6873709670584138 Bi
   0.2791543757890440    0.4399927830133613    0.6873709670584138 Bi
   0.4965456801368702    0.4182536525785785    0.6873709670584138 Bi
   0.7139369844846962    0.3965145221437959    0.6873709670584138 Bi
   0.9313282888325224    0.3747753917090134    0.6873709670584138 Bi
   0.1921978540499134    0.5486884351872743    0.6873709670584138 Bi
   0.4095891583977396    0.5269493047524916    0.6873709670584138 Bi
   0.6269804627455658    0.5052101743177090    0.6873709670584138 Bi
   0.8443717670933917    0.4834710438829264    0.6873709670584138 Bi
   0.1052413323107832    0.6573840873611873    0.6873709670584138 Bi
   0.3226326366586093    0.6356449569264048    0.6873709670584138 Bi
   0.5400239410064355    0.6139058264916220    0.6873709670584138 Bi
   0.7574152453542613    0.5921666960568395    0.6873709670584138 Bi
   0.9748065497020874    0.5704275656220569    0.6873709670584138 Bi
   0.2356761149194789    0.7443406091003177    0.6873709670584138 Bi
   0.4530674192673049    0.7226014786655350    0.6873709670584138 Bi
   0.6704587236151308    0.7008623482307526    0.6873709670584138 Bi
   0.8878500279629574    0.6791232177959698    0.6873709670584138 Bi
   0.1487195931803482    0.8530362612742305    0.6873709670584138 Bi
   0.3661108975281742    0.8312971308394481    0.6873709670584138 Bi
   0.5835022018760005    0.8095580004046655    0.6873709670584138 Bi
   0.8008935062238268    0.7878188699698829    0.6873709670584138 Bi
   0.0182848105716527    0.7660797395351004    0.6873709670584138 Bi
   0.2791543757890438    0.9399927830133611    0.6873709670584138 Bi
   0.4965456801368699    0.9182536525785785    0.6873709670584138 Bi
   0.7139369844846958    0.8965145221437960    0.6873709670584138 Bi
   0.9313282888325224    0.8747753917090135    0.6873709670584138 Bi
   0.0589770841181987    0.9606767565391225    0.5665155440360311 Bi
   0.1894118667268946    0.0476332782782529    0.5665155440360311 Bi
   0.4068031710747207    0.0258941478434703    0.5665155440360311 Bi
   0.6241944754225468    0.0041550174086877    0.5665155440360311 Bi
   0.8415857797703727    0.9824158869739050    0.5665155440360311 Bi
   0.1024553449877640    0.1563289304521659    0.5665155440360311 Bi
   0.3198466493355902    0.1345898000173834    0.5665155440360311 Bi
   0.5372379536834163    0.1128506695826007    0.5665155440360311 Bi
   0.7546292580312425    0.0911115391478181    0.5665155440360311 Bi
   0.9720205623790684    0.0693724087130355    0.5665155440360311 Bi
   0.2328901275964597    0.2432854521912964    0.5665155440360311 Bi
   0.4502814319442858    0.2215463217565138    0.5665155440360311 Bi
   0.6676727362921118    0.1998071913217312    0.5665155440360311 Bi
   0.8850640406399380    0.1780680608869485    0.5665155440360311 Bi
   0.1459336058573292    0.3519811043652094    0.5665155440360311 Bi
   0.3633249102051554    0.3302419739304268    0.5665155440360311 Bi
   0.5807162145529817    0.3085028434956442    0.5665155440360311 Bi
   0.7981075189008076    0.2867637130608616    0.5665155440360311 Bi
   0.0154988232486336    0.2650245826260790    0.5665155440360311 Bi
   0.0589770841181988    0.4606767565391223    0.5665155440360311 Bi
   0.2763683884660249    0.4389376261043398    0.5665155440360311 Bi
   0.4937596928138512    0.4171984956695571    0.5665155440360311 Bi
   0.7111509971616773    0.3954593652347746    0.5665155440360311 Bi
   0.9285423015095032    0.3737202347999921    0.5665155440360311 Bi
   0.1894118667268944    0.5476332782782530    0.5665155440360311 Bi
   0.4068031710747205    0.5258941478434702    0.5665155440360311 Bi
   0.6241944754225468    0.5041550174086876    0.5665155440360311 Bi
   0.8415857797703727    0.4824158869739050    0.5665155440360311 Bi
   0.1024553449877641    0.6563289304521660    0.5665155440360311 Bi
   0.3198466493355901    0.6345898000173832    0.5665155440360311 Bi
   0.5372379536834164    0.6128506695826006    0.5665155440360311 Bi
   0.7546292580312424    0.5911115391478180    0.5665155440360311 Bi
   0.9720205623790683    0.5693724087130355    0.5665155440360311 Bi
   0.2328901275964597    0.7432854521912963    0.5665155440360311 Bi
   0.4502814319442858    0.7215463217565138    0.5665155440360311 Bi
   0.6676727362921119    0.6998071913217313    0.5665155440360311 Bi
   0.8850640406399378    0.6780680608869486    0.5665155440360311 Bi
   0.1459336058573292    0.8519811043652095    0.5665155440360311 Bi
   0.3633249102051552    0.8302419739304269    0.5665155440360311 Bi
   0.5807162145529815    0.8085028434956442    0.5665155440360311 Bi
   0.7981075189008073    0.7867637130608617    0.5665155440360311 Bi
   0.0154988232486335    0.7650245826260790    0.5665155440360311 Bi
   0.2763683884660249    0.9389376261043396    0.5665155440360311 Bi
   0.4937596928138511    0.9171984956695574    0.5665155440360311 Bi
   0.7111509971616768    0.8954593652347744    0.5665155440360311 Bi
   0.9285423015095033    0.8737202347999919    0.5665155440360311 Bi
   0.9583810987680703    0.0037328309701531    0.4870641414761426 Bi
   0.0888158813767660    0.0906893527092835    0.4870641414761425 Bi
   0.3062071857245920    0.0689502222745009    0.4870641414761425 Bi
   0.5235984900724184    0.0472110918397184    0.4870641414761425 Bi
   0.7409897944202443    0.0254719614049357    0.4870641414761425 Bi
   0.0018593596376355    0.1993850048831966    0.4870641414761425 Bi
   0.2192506639854616    0.1776458744484140    0.4870641414761425 Bi
   0.4366419683332876    0.1559067440136314    0.4870641414761425 Bi
   0.6540332726811138    0.1341676135788488    0.4870641414761425 Bi
   0.8714245770289399    0.1124284831440662    0.4870641414761425 Bi
   0.1322941422463312    0.2863415266223270    0.4870641414761425 Bi
   0.3496854465941572    0.2646023961875444    0.4870641414761425 Bi
   0.5670767509419834    0.2428632657527619    0.4870641414761425 Bi
   0.7844680552898095    0.2211241353179793    0.4870641414761425 Bi
   0.0453376205072006    0.3950371787962401    0.4870641414761425 Bi
   0.2627289248550267    0.3732980483614575    0.4870641414761425 Bi
   0.4801202292028529    0.3515589179266749    0.4870641414761425 Bi
   0.6975115335506792    0.3298197874918922    0.4870641414761425 Bi
   0.9149028378985050    0.3080806570571096    0.4870641414761425 Bi
   0.9583810987680703    0.5037328309701530    0.4870641414761425 Bi
   0.1757724031158963    0.4819937005353705    0.4870641414761425 Bi
   0.3931637074637224    0.4602545701005879    0.4870641414761425 Bi
   0.6105550118115487    0.4385154396658053    0.4870641414761425 Bi
   0.8279463161593746    0.4167763092310228    0.4870641414761425 Bi
   0.0888158813767658    0.5906893527092837    0.4870641414761425 Bi
   0.3062071857245919    0.5689502222745011    0.4870641414761425 Bi
   0.5235984900724181    0.5472110918397184    0.4870641414761425 Bi
   0.7409897944202440    0.5254719614049359    0.4870641414761425 Bi
   0.0018593596376354    0.6993850048831965    0.4870641414761425 Bi
   0.2192506639854616    0.6776458744484140    0.4870641414761425 Bi
   0.4366419683332878    0.6559067440136315    0.4870641414761425 Bi
   0.6540332726811138    0.6341676135788487    0.4870641414761425 Bi
   0.8714245770289396    0.6124284831440662    0.4870641414761426 Bi
   0.1322941422463310    0.7863415266223269    0.4870641414761425 Bi
   0.3496854465941572    0.7646023961875446    0.4870641414761425 Bi
   0.5670767509419834    0.7428632657527617    0.4870641414761426 Bi
   0.7844680552898096    0.7211241353179793    0.4870641414761426 Bi
   0.0453376205072006    0.8950371787962398    0.4870641414761425 Bi
   0.2627289248550268    0.8732980483614575    0.4870641414761426 Bi
   0.4801202292028530    0.8515589179266748    0.4870641414761426 Bi
   0.6975115335506792    0.8298197874918922    0.4870641414761426 Bi
   0.9149028378985052    0.8080806570571096    0.4870641414761426 Bi
   0.1757724031158964    0.9819937005353705    0.4870641414761425 Bi
   0.3931637074637225    0.9602545701005878    0.4870641414761426 Bi
   0.6105550118115485    0.9385154396658053    0.4870641414761426 Bi
   0.8279463161593744    0.9167763092310228    0.4870641414761426 Bi
   0.9273525856471312    0.9936147512590774    0.2000427878291580 Se
   0.0318301975874296    0.0682416169307192    0.2000427878291580 Se
   0.2109346751993699    0.0533162437963909    0.2000427878291580 Se
   0.3900391528113101    0.0383908706620625    0.2000427878291580 Se
   0.5691436304232504    0.0234654975277341    0.2000427878291580 Se
   0.7482481080351908    0.0085401243934057    0.2000427878291580 Se
   0.9572033319157878    0.1577938557366893    0.2000427878291580 Se
   0.1363078095277281    0.1428684826023610    0.2000427878291580 Se
   0.3154122871396683    0.1279431094680327    0.2000427878291580 Se
   0.4945167647516089    0.1130177363337043    0.2000427878291580 Se
   0.6736212423635491    0.0980923631993759    0.2000427878291580 Se
   0.8527257199754893    0.0831669900650475    0.2000427878291580 Se
   0.0616809438560863    0.2324207214083311    0.2000427878291580 Se
   0.2407854214680266    0.2174953482740028    0.2000427878291580 Se
   0.4198898990799668    0.2025699751396744    0.2000427878291580 Se
   0.5989943766919072    0.1876446020053461    0.2000427878291580 Se
   0.7780988543038475    0.1727192288710177    0.2000427878291580 Se
   0.9870540781844445    0.3219729602143013    0.2000427878291580 Se
   0.1661585557963848    0.3070475870799729    0.2000427878291580 Se
   0.3452630334083251    0.2921222139456445    0.2000427878291580 Se
   0.5243675110202655    0.2771968408113162    0.2000427878291580 Se
   0.7034719886322057    0.2622714676769879    0.2000427878291580 Se
   0.8825764662441462    0.2473460945426595    0.2000427878291580 Se
   0.0915316901247429    0.3965998258859431    0.2000427878291580 Se
   0.2706361677366833    0.3816744527516147    0.2000427878291580 Se
   0.4497406453486237    0.3667490796172864    0.2000427878291580 Se
   0.6288451229605641    0.3518237064829580    0.2000427878291580 Se
   0.8079496005725044    0.3368983333486296    0.2000427878291579 Se
   0.0169048244531012    0.4861520646919132    0.2000427878291580 Se
   0.1960093020650415    0.4712266915575848    0.2000427878291580 Se
   0.3751137796769818    0.4563013184232566    0.2000427878291580 Se
   0.5542182572889220    0.4413759452889283    0.2000427878291579 Se
   0.7333227349008626    0.4264505721545998    0.2000427878291579 Se
   0.9124272125128029    0.4115251990202715    0.2000427878291580 Se
   0.9422779587814594    0.5757043034978833    0.2000427878291580 Se
   0.1213824363933998    0.5607789303635549    0.2000427878291580 Se
   0.3004869140053400    0.5458535572292265    0.2000427878291580 Se
   0.4795913916172803    0.5309281840948983    0.2000427878291579 Se
   0.6586958692292206    0.5160028109605701    0.2000427878291580 Se
   0.8378003468411611    0.5010774378262416    0.2000427878291580 Se
   0.0467555707217578    0.6503311691695250    0.2000427878291580 Se
   0.2258600483336982    0.6354057960351968    0.2000427878291579 Se
   0.4049645259456386    0.6204804229008684    0.2000427878291580 Se
   0.5840690035575791    0.6055550497665401    0.2000427878291580 Se
   0.7631734811695192    0.5906296766322118    0.2000427878291580 Se
   0.9721287050501161    0.7398834079754951    0.2000427878291580 Se
   0.1512331826620564    0.7249580348411669    0.2000427878291579 Se
   0.3303376602739968    0.7100326617068385    0.2000427878291580 Se
   0.5094421378859372    0.6951072885725103    0.2000427878291580 Se
   0.6885466154978774    0.6801819154381818    0.2000427878291580 Se
   0.8676510931098176    0.6652565423038537    0.2000427878291580 Se
   0.0766063169904147    0.8145102736471370    0.2000427878291580 Se
   0.2557107946023550    0.7995849005128086    0.2000427878291580 Se
   0.4348152722142954    0.7846595273784803    0.2000427878291580 Se
   0.6139197498262357    0.7697341542441519    0.2000427878291580 Se
   0.7930242274381760    0.7548087811098235    0.2000427878291580 Se
   0.0019794513187728    0.9040625124531072    0.2000427878291580 Se
   0.1810839289307132    0.8891371393187790    0.2000427878291580 Se
   0.3601884065426534    0.8742117661844505    0.2000427878291580 Se
   0.5392928841545938    0.8592863930501221    0.2000427878291580 Se
   0.7183973617665341    0.8443610199157939    0.2000427878291580 Se
   0.8975018393784747    0.8294356467814654    0.2000427878291580 Se
   0.1064570632590713    0.9786893781247492    0.2000427878291580 Se
   0.2855615408710118    0.9637640049904208    0.2000427878291580 Se
   0.4646660184829520    0.9488386318560924    0.2000427878291580 Se
   0.6437704960948926    0.9339132587217641    0.2000427878291580 Se
   0.8228749737068329    0.9189878855874357    0.2000427878291580 Se
   0.0118381571143980    0.9585188301673340    0.3229896502366213 Se
   0.1163157690546966    0.0331456958389757    0.3229896502366213 Se
   0.2954202466666369    0.0182203227046473    0.3229896502366213 Se
   0.4745247242785772    0.0032949495703189    0.3229896502366213 Se
   0.6536292018905177    0.9883695764359905    0.3229896502366213 Se
   0.8327336795024579    0.9734442033016623    0.3229896502366213 Se
   0.0416889033830548    0.1226979346449458    0.3229896502366213 Se
   0.2207933809949951    0.1077725615106174    0.3229896502366213 Se
   0.3998978586069354    0.0928471883762891    0.3229896502366213 Se
   0.5790023362188760    0.0779218152419608    0.3229896502366213 Se
   0.7581068138308160    0.0629964421076324    0.3229896502366213 Se
   0.9372112914427565    0.0480710689733040    0.3229896502366213 Se
   0.1461665153233533    0.1973248003165877    0.3229896502366213 Se
   0.3252709929352937    0.1823994271822593    0.3229896502366213 Se
   0.5043754705472341    0.1674740540479309    0.3229896502366213 Se
   0.6834799481591743    0.1525486809136025    0.3229896502366213 Se
   0.8625844257711147    0.1376233077792742    0.3229896502366213 Se
   0.0715396496517115    0.2868770391225577    0.3229896502366213 Se
   0.2506441272636519    0.2719516659882294    0.3229896502366213 Se
   0.4297486048755922    0.2570262928539010    0.3229896502366213 Se
   0.6088530824875324    0.2421009197195727    0.3229896502366213 Se
   0.7879575600994727    0.2271755465852444    0.3229896502366213 Se
   0.9670620377114131    0.2122501734509160    0.3229896502366213 Se
   0.1760172615920101    0.3615039047941995    0.3229896502366213 Se
   0.3551217392039504    0.3465785316598711    0.3229896502366213 Se
   0.5342262168158908    0.3316531585255428    0.3229896502366213 Se
   0.7133306944278310    0.3167277853912145    0.3229896502366213 Se
   0.8924351720397713    0.3018024122568861    0.3229896502366213 Se
   0.1013903959203682    0.4510561436001697    0.3229896502366213 Se
   0.2804948735323085    0.4361307704658414    0.3229896502366213 Se
   0.4595993511442487    0.4212053973315130    0.3229896502366213 Se
   0.6387038287561893    0.4062800241971846    0.3229896502366213 Se
   0.8178083063681296    0.3913546510628563    0.3229896502366213 Se
   0.9969127839800699    0.3764292779285279    0.3229896502366213 Se
   0.0267635302487263    0.5406083824061400    0.3229896502366213 Se
   0.2058680078606667    0.5256830092718113    0.3229896502366213 Se
   0.3849724854726073    0.5107576361374832    0.3229896502366213 Se
   0.5640769630845475    0.4958322630031548    0.3229896502366213 Se
   0.7431814406964878    0.4809068898688263    0.3229896502366213 Se
   0.9222859183084280    0.4659815167344981    0.3229896502366213 Se
   0.1312411421890249    0.6152352480777816    0.3229896502366213 Se
   0.3103456198009653    0.6003098749434533    0.3229896502366213 Se
   0.4894500974129056    0.5853845018091249    0.3229896502366213 Se
   0.6685545750248462    0.5704591286747966    0.3229896502366213 Se
   0.8476590526367864    0.5555337555404682    0.3229896502366213 Se
   0.0566142765173832    0.7047874868837518    0.3229896502366213 Se