{'film_sl_vectors': array([[-6.25624176, 18.06021431,  0.        ],
       [33.36662271, 14.44817145, -0.        ]]), 'substrate_sl_vectors': array([[-6.92714156, 17.99724171,  0.        ],
       [32.90392243, 14.99770142, -0.        ]]), 'film_vectors': array([[ 4.17082784,  0.        ,  0.        ],
       [-2.08541392,  3.61204286,  0.        ]]), 'substrate_vectors': array([[ 3.46357078,  0.        ,  0.        ],
       [-1.73178539,  2.99954028,  0.        ]]), 'film_transformation': array([[ 1.,  5.],
       [ 0., 46.]]), 'substrate_transformation': array([[ 1.,  6.],
       [ 0., 67.]]), 'strain': Strain([[ 0.00205309 -0.01044288  0.        ]
 [-0.01044288  0.00259626  0.        ]
 [ 0.          0.          0.        ]]), 'von_mises_strain': 0.01216162730945879, 'termination': ('default', 'default'), 'film_thickness': 1, 'substrate_thickness': 1, 'signed_angle': 1.9451190864585857, 'decomposition_angle': -1.4897422928896398}