Nb116 Bi160 Se472
1.0
  18.3274938744744524    0.0000000000000000    0.0000000000000011
   3.2727667646007159   32.8778702274150589    0.0000000000000020
   0.0000000000000000    0.0000000000000000   49.9893053307188922
Nb Bi Se
116 160 472
direct
   0.6689410367177465    0.0850868906314426    0.3566429020965913 Nb
   0.6861824160280914    0.1885351664935117    0.3566429020965913 Nb
   0.7034237953384362    0.2919834423555806    0.3566429020965913 Nb
   0.7206651746487810    0.3954317182176496    0.3566429020965913 Nb
   0.7379065539591257    0.4988799940797186    0.3566429020965913 Nb
   0.7551479332694707    0.6023282699417876    0.3566429020965913 Nb
   0.7723893125798156    0.7057765458038565    0.3566429020965913 Nb
   0.7896306918901601    0.8092248216659257    0.3566429020965913 Nb
   0.8068720712005053    0.9126730975279945    0.3566429020965913 Nb
   0.4965272436142983    0.0506041320107530    0.3566429020965913 Nb
   0.5137686229246430    0.1540524078728220    0.3566429020965913 Nb
   0.5310100022349880    0.2575006837348909    0.3566429020965913 Nb
   0.5482513815453328    0.3609489595969599    0.3566429020965913 Nb
   0.5654927608556776    0.4643972354590290    0.3566429020965913 Nb
   0.5827341401660224    0.5678455113210977    0.3566429020965913 Nb
   0.5999755194763671    0.6712937871831668    0.3566429020965913 Nb
   0.6172168987867119    0.7747420630452359    0.3566429020965913 Nb
   0.6344582780970567    0.8781903389073048    0.3566429020965913 Nb
   0.6516996574074018    0.9816386147693739    0.3566429020965913 Nb
   0.3241134505108501    0.0161213733900633    0.3566429020965913 Nb
   0.3413548298211949    0.1195696492521323    0.3566429020965913 Nb
   0.3585962091315398    0.2230179251142013    0.3566429020965913 Nb
   0.3758375884418843    0.3264662009762703    0.3566429020965913 Nb
   0.3930789677522293    0.4299144768383392    0.3566429020965913 Nb
   0.4103203470625743    0.5333627527004081    0.3566429020965913 Nb
   0.4275617263729190    0.6368110285624772    0.3566429020965913 Nb
   0.4448031056832639    0.7402593044245462    0.3566429020965913 Nb
   0.4620444849936084    0.8437075802866152    0.3566429020965913 Nb
   0.4792858643039533    0.9471558561486842    0.3566429020965913 Nb
   0.1689410367177466    0.0850868906314426    0.3566429020965913 Nb
   0.1861824160280914    0.1885351664935116    0.3566429020965913 Nb
   0.2034237953384361    0.2919834423555805    0.3566429020965913 Nb
   0.2206651746487810    0.3954317182176496    0.3566429020965913 Nb
   0.2379065539591258    0.4988799940797184    0.3566429020965913 Nb
   0.2551479332694706    0.6023282699417876    0.3566429020965913 Nb
   0.2723893125798155    0.7057765458038565    0.3566429020965913 Nb
   0.2896306918901603    0.8092248216659256    0.3566429020965913 Nb
   0.3068720712005051    0.9126730975279945    0.3566429020965913 Nb
   0.9965272436142983    0.0506041320107529    0.3566429020965913 Nb
   0.0137686229246431    0.1540524078728219    0.3566429020965913 Nb
   0.0310100022349879    0.2575006837348909    0.3566429020965913 Nb
   0.0482513815453327    0.3609489595969599    0.3566429020965913 Nb
   0.0654927608556775    0.4643972354590288    0.3566429020965913 Nb
   0.0827341401660224    0.5678455113210978    0.3566429020965913 Nb
   0.0999755194763671    0.6712937871831669    0.3566429020965913 Nb
   0.1172168987867119    0.7747420630452359    0.3566429020965913 Nb
   0.1344582780970568    0.8781903389073048    0.3566429020965913 Nb
   0.1516996574074017    0.9816386147693739    0.3566429020965913 Nb
   0.8241134505108501    0.0161213733900633    0.3566429020965913 Nb
   0.8413548298211949    0.1195696492521323    0.3566429020965913 Nb
   0.8585962091315394    0.2230179251142012    0.3566429020965913 Nb
   0.8758375884418845    0.3264662009762703    0.3566429020965913 Nb
   0.8930789677522292    0.4299144768383392    0.3566429020965913 Nb
   0.9103203470625739    0.5333627527004082    0.3566429020965913 Nb
   0.9275617263729187    0.6368110285624772    0.3566429020965913 Nb
   0.9448031056832638    0.7402593044245462    0.3566429020965913 Nb
   0.9620444849936084    0.8437075802866152    0.3566429020965913 Nb
   0.9792858643039533    0.9471558561486842    0.3566429020965913 Nb
   0.6684131837350631    0.0851723240814512    0.2336917587878816 Nb
   0.6856545630454081    0.1886205999435202    0.2336917587878816 Nb
   0.7028959423557528    0.2920688758055893    0.2336917587878816 Nb
   0.7201373216660975    0.3955171516676583    0.2336917587878816 Nb
   0.7373787009764423    0.4989654275297273    0.2336917587878816 Nb
   0.7546200802867873    0.6024137033917962    0.2336917587878816 Nb
   0.7718614595971321    0.7058619792538652    0.2336917587878816 Nb
   0.7891028389074767    0.8093102551159341    0.2336917587878816 Nb
   0.8063442182178218    0.9127585309780032    0.2336917587878816 Nb
   0.4959993906316150    0.0506895654607616    0.2336917587878816 Nb
   0.5132407699419598    0.1541378413228305    0.2336917587878816 Nb
   0.5304821492523046    0.2575861171848996    0.2336917587878816 Nb
   0.5477235285626493    0.3610343930469686    0.2336917587878816 Nb
   0.5649649078729944    0.4644826689090376    0.2336917587878816 Nb
   0.5822062871833386    0.5679309447711066    0.2336917587878816 Nb
   0.5994476664936834    0.6713792206331755    0.2336917587878816 Nb
   0.6166890458040285    0.7748274964952445    0.2336917587878816 Nb
   0.6339304251143734    0.8782757723573135    0.2336917587878816 Nb
   0.6511718044247183    0.9817240482193825    0.2336917587878816 Nb
   0.3235855975281667    0.0162068068400719    0.2336917587878816 Nb
   0.3408269768385116    0.1196550827021409    0.2336917587878816 Nb
   0.3580683561488562    0.2231033585642099    0.2336917587878816 Nb
   0.3753097354592010    0.3265516344262789    0.2336917587878816 Nb
   0.3925511147695460    0.4299999102883478    0.2336917587878816 Nb
   0.4097924940798907    0.5334481861504169    0.2336917587878816 Nb
   0.4270338733902356    0.6368964620124857    0.2336917587878816 Nb
   0.4442752527005803    0.7403447378745547    0.2336917587878816 Nb
   0.4615166320109250    0.8437930137366239    0.2336917587878816 Nb
   0.4787580113212699    0.9472412895986928    0.2336917587878816 Nb
   0.1684131837350633    0.0851723240814512    0.2336917587878816 Nb
   0.1856545630454080    0.1886205999435202    0.2336917587878816 Nb
   0.2028959423557528    0.2920688758055892    0.2336917587878816 Nb
   0.2201373216660975    0.3955171516676582    0.2336917587878816 Nb
   0.2373787009764426    0.4989654275297272    0.2336917587878816 Nb
   0.2546200802867872    0.6024137033917963    0.2336917587878816 Nb
   0.2718614595971320    0.7058619792538652    0.2336917587878816 Nb
   0.2891028389074770    0.8093102551159341    0.2336917587878816 Nb
   0.3063442182178215    0.9127585309780031    0.2336917587878816 Nb
   0.9959993906316150    0.0506895654607616    0.2336917587878816 Nb
   0.0132407699419598    0.1541378413228306    0.2336917587878816 Nb
   0.0304821492523046    0.2575861171848995    0.2336917587878816 Nb
   0.0477235285626493    0.3610343930469686    0.2336917587878816 Nb
   0.0649649078729942    0.4644826689090376    0.2336917587878816 Nb
   0.0822062871833388    0.5679309447711066    0.2336917587878816 Nb
   0.0994476664936838    0.6713792206331753    0.2336917587878816 Nb
   0.1166890458040285    0.7748274964952445    0.2336917587878816 Nb
   0.1339304251143733    0.8782757723573135    0.2336917587878816 Nb
   0.1511718044247183    0.9817240482193825    0.2336917587878816 Nb
   0.8235855975281670    0.0162068068400719    0.2336917587878816 Nb
   0.8408269768385116    0.1196550827021410    0.2336917587878816 Nb
   0.8580683561488562    0.2231033585642099    0.2336917587878816 Nb
   0.8753097354592011    0.3265516344262789    0.2336917587878816 Nb
   0.8925511147695460    0.4299999102883479    0.2336917587878816 Nb
   0.9097924940798907    0.5334481861504170    0.2336917587878816 Nb
   0.9270338733902355    0.6368964620124860    0.2336917587878816 Nb
   0.9442752527005802    0.7403447378745547    0.2336917587878816 Nb
   0.9615166320109252    0.8437930137366239    0.2336917587878816 Nb
   0.9787580113212698    0.9472412895986928    0.2336917587878816 Nb
   0.1294096135887500    0.9855243419156945    0.7671208852038272 Bi
   0.1294096135887500    0.1105243419156945    0.7671208852038272 Bi
   0.3294096135887500    0.0355243419156945    0.7671208852038272 Bi
   0.1294096135887500    0.2355243419156945    0.7671208852038272 Bi
   0.3294096135887500    0.1605243419156945    0.7671208852038272 Bi
   0.5294096135887500    0.0855243419156945    0.7671208852038272 Bi
   0.7294096135887502    0.0105243419156945    0.7671208852038272 Bi
   0.1294096135887500    0.3605243419156946    0.7671208852038272 Bi
   0.3294096135887500    0.2855243419156945    0.7671208852038272 Bi
   0.5294096135887499    0.2105243419156945    0.7671208852038272 Bi
   0.7294096135887501    0.1355243419156945    0.7671208852038272 Bi
   0.9294096135887500    0.0605243419156945    0.7671208852038272 Bi
   0.1294096135887500    0.4855243419156947    0.7671208852038272 Bi
   0.3294096135887500    0.4105243419156946    0.7671208852038272 Bi
   0.5294096135887499    0.3355243419156945    0.7671208852038272 Bi
   0.7294096135887502    0.2605243419156945    0.7671208852038272 Bi
   0.9294096135887501    0.1855243419156945    0.7671208852038272 Bi
   0.1294096135887500    0.6105243419156947    0.7671208852038272 Bi
   0.3294096135887500    0.5355243419156946    0.7671208852038272 Bi
   0.5294096135887500    0.4605243419156945    0.7671208852038272 Bi
   0.7294096135887502    0.3855243419156946    0.7671208852038272 Bi
   0.9294096135887501    0.3105243419156944    0.7671208852038272 Bi
   0.1294096135887501    0.7355243419156946    0.7671208852038272 Bi
   0.3294096135887500    0.6605243419156945    0.7671208852038272 Bi
   0.5294096135887499    0.5855243419156946    0.7671208852038272 Bi
   0.7294096135887502    0.5105243419156944    0.7671208852038272 Bi
   0.9294096135887502    0.4355243419156945    0.7671208852038272 Bi
   0.1294096135887500    0.8605243419156946    0.7671208852038272 Bi
   0.3294096135887500    0.7855243419156945    0.7671208852038272 Bi
   0.5294096135887500    0.7105243419156944    0.7671208852038272 Bi
   0.7294096135887501    0.6355243419156945    0.7671208852038272 Bi
   0.9294096135887500    0.5605243419156946    0.7671208852038272 Bi
   0.3294096135887500    0.9105243419156946    0.7671208852038272 Bi
   0.5294096135887500    0.8355243419156945    0.7671208852038272 Bi
   0.7294096135887503    0.7605243419156944    0.7671208852038272 Bi
   0.9294096135887498    0.6855243419156943    0.7671208852038272 Bi
   0.5294096135887500    0.9605243419156946    0.7671208852038272 Bi
   0.7294096135887501    0.8855243419156944    0.7671208852038272 Bi
   0.9294096135887501    0.8105243419156944    0.7671208852038272 Bi
   0.9294096135887502    0.9355243419156946    0.7671208852038272 Bi
   0.0622482127936718    0.9261836043063418    0.6873709670584138 Bi
   0.0622482127936718    0.0511836043063419    0.6873709670584137 Bi
   0.2622482127936718    0.9761836043063419    0.6873709670584137 Bi
   0.0622482127936718    0.1761836043063419    0.6873709670584138 Bi
   0.2622482127936718    0.1011836043063419    0.6873709670584138 Bi
   0.4622482127936718    0.0261836043063419    0.6873709670584138 Bi
   0.6622482127936721    0.9511836043063419    0.6873709670584138 Bi
   0.0622482127936718    0.3011836043063419    0.6873709670584138 Bi
   0.2622482127936718    0.2261836043063419    0.6873709670584138 Bi
   0.4622482127936719    0.1511836043063419    0.6873709670584138 Bi
   0.6622482127936719    0.0761836043063419    0.6873709670584138 Bi
   0.8622482127936717    0.0011836043063419    0.6873709670584138 Bi
   0.0622482127936718    0.4261836043063419    0.6873709670584138 Bi
   0.2622482127936718    0.3511836043063419    0.6873709670584138 Bi
   0.4622482127936718    0.2761836043063420    0.6873709670584138 Bi
   0.6622482127936720    0.2011836043063419    0.6873709670584138 Bi
   0.8622482127936718    0.1261836043063419    0.6873709670584138 Bi
   0.0622482127936718    0.5511836043063418    0.6873709670584138 Bi
   0.2622482127936718    0.4761836043063421    0.6873709670584138 Bi
   0.4622482127936718    0.4011836043063420    0.6873709670584138 Bi
   0.6622482127936720    0.3261836043063419    0.6873709670584138 Bi
   0.8622482127936717    0.2511836043063418    0.6873709670584138 Bi
   0.0622482127936718    0.6761836043063419    0.6873709670584138 Bi
   0.2622482127936718    0.6011836043063422    0.6873709670584138 Bi
   0.4622482127936718    0.5261836043063418    0.6873709670584138 Bi
   0.6622482127936720    0.4511836043063418    0.6873709670584138 Bi
   0.8622482127936718    0.3761836043063420    0.6873709670584138 Bi
   0.0622482127936718    0.8011836043063421    0.6873709670584138 Bi
   0.2622482127936718    0.7261836043063422    0.6873709670584138 Bi
   0.4622482127936719    0.6511836043063418    0.6873709670584138 Bi
   0.6622482127936720    0.5761836043063421    0.6873709670584138 Bi
   0.8622482127936718    0.5011836043063419    0.6873709670584138 Bi
   0.2622482127936718    0.8511836043063422    0.6873709670584138 Bi
   0.4622482127936718    0.7761836043063419    0.6873709670584138 Bi
   0.6622482127936720    0.7011836043063421    0.6873709670584138 Bi
   0.8622482127936718    0.6261836043063419    0.6873709670584138 Bi
   0.4622482127936719    0.9011836043063418    0.6873709670584138 Bi
   0.6622482127936719    0.8261836043063421    0.6873709670584138 Bi
   0.8622482127936718    0.7511836043063420    0.6873709670584138 Bi
   0.8622482127936718    0.8761836043063419    0.6873709670584138 Bi
   0.0586180999434356    0.9258777020735265    0.5665155440360312 Bi
   0.0586180999434356    0.0508777020735264    0.5665155440360311 Bi
   0.2586180999434357    0.9758777020735264    0.5665155440360311 Bi
   0.0586180999434356    0.1758777020735264    0.5665155440360311 Bi
   0.2586180999434357    0.1008777020735264    0.5665155440360311 Bi
   0.4586180999434356    0.0258777020735264    0.5665155440360312 Bi
   0.6586180999434356    0.9508777020735264    0.5665155440360312 Bi
   0.0586180999434356    0.3008777020735264    0.5665155440360312 Bi
   0.2586180999434357    0.2258777020735264    0.5665155440360312 Bi
   0.4586180999434357    0.1508777020735264    0.5665155440360312 Bi
   0.6586180999434357    0.0758777020735264    0.5665155440360312 Bi
   0.8586180999434359    0.0008777020735264    0.5665155440360312 Bi
   0.0586180999434356    0.4258777020735265    0.5665155440360312 Bi
   0.2586180999434357    0.3508777020735265    0.5665155440360312 Bi
   0.4586180999434357    0.2758777020735264    0.5665155440360312 Bi
   0.6586180999434357    0.2008777020735264    0.5665155440360312 Bi
   0.8586180999434357    0.1258777020735264    0.5665155440360312 Bi
   0.0586180999434356    0.5508777020735266    0.5665155440360312 Bi
   0.2586180999434357    0.4758777020735265    0.5665155440360312 Bi
   0.4586180999434357    0.4008777020735265    0.5665155440360312 Bi
   0.6586180999434356    0.3258777020735264    0.5665155440360312 Bi
   0.8586180999434359    0.2508777020735263    0.5665155440360312 Bi
   0.0586180999434356    0.6758777020735265    0.5665155440360312 Bi
   0.2586180999434357    0.6008777020735265    0.5665155440360312 Bi
   0.4586180999434356    0.5258777020735265    0.5665155440360312 Bi
   0.6586180999434357    0.4508777020735263    0.5665155440360312 Bi
   0.8586180999434357    0.3758777020735264    0.5665155440360312 Bi
   0.0586180999434356    0.8008777020735264    0.5665155440360312 Bi
   0.2586180999434356    0.7258777020735264    0.5665155440360312 Bi
   0.4586180999434357    0.6508777020735265    0.5665155440360312 Bi
   0.6586180999434356    0.5758777020735264    0.5665155440360312 Bi
   0.8586180999434359    0.5008777020735266    0.5665155440360312 Bi
   0.2586180999434356    0.8508777020735264    0.5665155440360312 Bi
   0.4586180999434356    0.7758777020735264    0.5665155440360312 Bi
   0.6586180999434357    0.7008777020735263    0.5665155440360312 Bi
   0.8586180999434357    0.6258777020735266    0.5665155440360312 Bi
   0.4586180999434357    0.9008777020735265    0.5665155440360312 Bi
   0.6586180999434357    0.8258777020735263    0.5665155440360312 Bi
   0.8586180999434357    0.7508777020735263    0.5665155440360312 Bi
   0.8586180999434357    0.8758777020735266    0.5665155440360312 Bi
   0.9924669741381316    0.9919299691205377    0.4870641414761425 Bi
   0.9924669741381316    0.1169299691205377    0.4870641414761425 Bi
   0.1924669741381317    0.0419299691205377    0.4870641414761425 Bi
   0.9924669741381316    0.2419299691205377    0.4870641414761425 Bi
   0.1924669741381316    0.1669299691205377    0.4870641414761425 Bi
   0.3924669741381316    0.0919299691205377    0.4870641414761425 Bi
   0.5924669741381317    0.0169299691205377    0.4870641414761425 Bi
   0.9924669741381316    0.3669299691205377    0.4870641414761425 Bi
   0.1924669741381316    0.2919299691205378    0.4870641414761425 Bi
   0.3924669741381316    0.2169299691205377    0.4870641414761425 Bi
   0.5924669741381317    0.1419299691205377    0.4870641414761425 Bi
   0.7924669741381316    0.0669299691205377    0.4870641414761425 Bi
   0.9924669741381316    0.4919299691205378    0.4870641414761425 Bi
   0.1924669741381316    0.4169299691205378    0.4870641414761425 Bi
   0.3924669741381316    0.3419299691205377    0.4870641414761425 Bi
   0.5924669741381315    0.2669299691205377    0.4870641414761425 Bi
   0.7924669741381317    0.1919299691205378    0.4870641414761425 Bi
   0.9924669741381316    0.6169299691205377    0.4870641414761425 Bi
   0.1924669741381317    0.5419299691205377    0.4870641414761425 Bi
   0.3924669741381316    0.4669299691205377    0.4870641414761425 Bi
   0.5924669741381317    0.3919299691205376    0.4870641414761425 Bi
   0.7924669741381316    0.3169299691205376    0.4870641414761425 Bi
   0.9924669741381316    0.7419299691205378    0.4870641414761425 Bi
   0.1924669741381316    0.6669299691205378    0.4870641414761425 Bi
   0.3924669741381316    0.5919299691205376    0.4870641414761425 Bi
   0.5924669741381317    0.5169299691205375    0.4870641414761425 Bi
   0.7924669741381317    0.4419299691205377    0.4870641414761425 Bi
   0.9924669741381316    0.8669299691205378    0.4870641414761425 Bi
   0.1924669741381316    0.7919299691205378    0.4870641414761425 Bi
   0.3924669741381316    0.7169299691205376    0.4870641414761425 Bi
   0.5924669741381317    0.6419299691205376    0.4870641414761425 Bi
   0.7924669741381317    0.5669299691205376    0.4870641414761425 Bi
   0.1924669741381316    0.9169299691205379    0.4870641414761425 Bi
   0.3924669741381316    0.8419299691205377    0.4870641414761425 Bi
   0.5924669741381317    0.7669299691205377    0.4870641414761425 Bi
   0.7924669741381317    0.6919299691205376    0.4870641414761425 Bi
   0.3924669741381316    0.9669299691205377    0.4870641414761425 Bi
   0.5924669741381317    0.8919299691205377    0.4870641414761425 Bi
   0.7924669741381316    0.8169299691205377    0.4870641414761425 Bi
   0.7924669741381317    0.9419299691205376    0.4870641414761425 Bi
   0.7143687530203062    0.0276899530129077    0.2000427878291580 Se
   0.7316101323306512    0.1311382288749767    0.2000427878291580 Se
   0.7488515116409961    0.2345865047370456    0.2000427878291580 Se
   0.7660928909513408    0.3380347805991147    0.2000427878291580 Se
   0.7833342702616855    0.4414830564611837    0.2000427878291579 Se
   0.8005756495720306    0.5449313323232526    0.2000427878291580 Se
   0.8178170288823750    0.6483796081853217    0.2000427878291580 Se
   0.8350584081927198    0.7518278840473906    0.2000427878291580 Se
   0.8522997875030649    0.8552761599094596    0.2000427878291580 Se
   0.5419549599168579    0.9932071943922181    0.2000427878291580 Se
   0.5591963392272028    0.0966554702542870    0.2000427878291580 Se
   0.5764377185375477    0.2001037461163560    0.2000427878291580 Se
   0.5936790978478926    0.3035520219784251    0.2000427878291580 Se
   0.6109204771582376    0.4070002978404940    0.2000427878291580 Se
   0.6281618564685820    0.5104485737025630    0.2000427878291579 Se
   0.6454032357789270    0.6138968495646321    0.2000427878291580 Se
   0.6626446150892717    0.7173451254267009    0.2000427878291580 Se
   0.6798859943996163    0.8207934012887699    0.2000427878291580 Se
   0.6971273737099611    0.9242416771508390    0.2000427878291580 Se
   0.3695411668134097    0.9587244357715283    0.2000427878291580 Se
   0.3867825461237547    0.0621727116335974    0.2000427878291580 Se
   0.4040239254340995    0.1656209874956664    0.2000427878291580 Se
   0.4212653047444442    0.2690692633577353    0.2000427878291580 Se
   0.4385066840547890    0.3725175392198044    0.2000427878291580 Se
   0.4557480633651340    0.4759658150818733    0.2000427878291580 Se
   0.4729894426754790    0.5794140909439424    0.2000427878291579 Se
   0.4902308219858235    0.6828623668060113    0.2000427878291580 Se
   0.5074722012961685    0.7863106426680802    0.2000427878291580 Se
   0.5247135806065130    0.8897589185301492    0.2000427878291580 Se
   0.2143687530203064    0.0276899530129077    0.2000427878291580 Se
   0.2316101323306511    0.1311382288749767    0.2000427878291580 Se
   0.2488515116409959    0.2345865047370456    0.2000427878291580 Se
   0.2660928909513409    0.3380347805991147    0.2000427878291580 Se
   0.2833342702616856    0.4414830564611837    0.2000427878291580 Se
   0.3005756495720303    0.5449313323232527    0.2000427878291580 Se
   0.3178170288823752    0.6483796081853218    0.2000427878291579 Se
   0.3350584081927201    0.7518278840473908    0.2000427878291579 Se
   0.3522997875030650    0.8552761599094596    0.2000427878291580 Se
   0.0419549599168581    0.9932071943922181    0.2000427878291579 Se
   0.0591963392272029    0.0966554702542870    0.2000427878291580 Se
   0.0764377185375477    0.2001037461163560    0.2000427878291580 Se
   0.0936790978478924    0.3035520219784250    0.2000427878291580 Se
   0.1109204771582373    0.4070002978404940    0.2000427878291580 Se
   0.1281618564685822    0.5104485737025630    0.2000427878291580 Se
   0.1454032357789270    0.6138968495646320    0.2000427878291580 Se
   0.1626446150892716    0.7173451254267009    0.2000427878291579 Se
   0.1798859943996165    0.8207934012887700    0.2000427878291579 Se
   0.1971273737099612    0.9242416771508389    0.2000427878291580 Se
   0.8695411668134098    0.9587244357715283    0.2000427878291580 Se
   0.8867825461237546    0.0621727116335974    0.2000427878291580 Se
   0.9040239254340995    0.1656209874956664    0.2000427878291580 Se
   0.9212653047444441    0.2690692633577353    0.2000427878291580 Se
   0.9385066840547890    0.3725175392198044    0.2000427878291580 Se
   0.9557480633651338    0.4759658150818733    0.2000427878291580 Se
   0.9729894426754786    0.5794140909439425    0.2000427878291580 Se
   0.9902308219858235    0.6828623668060114    0.2000427878291580 Se
   0.0074722012961682    0.7863106426680802    0.2000427878291580 Se
   0.0247135806065129    0.8897589185301492    0.2000427878291579 Se
   0.7781289019803312    0.0735853651394011    0.3229896502366213 Se
   0.7953702812906758    0.1770336410014701    0.3229896502366213 Se
   0.8126116606010209    0.2804819168635392    0.3229896502366213 Se
   0.8298530399113655    0.3839301927256081    0.3229896502366213 Se
   0.8470944192217104    0.4873784685876771    0.3229896502366213 Se
   0.8643357985320552    0.5908267444497461    0.3229896502366213 Se
   0.8815771778423998    0.6942750203118151    0.3229896502366213 Se
   0.8988185571527445    0.7977232961738840    0.3229896502366214 Se
   0.9160599364630895    0.9011715720359531    0.3229896502366214 Se
   0.6057151088768830    0.0391026065187114    0.3229896502366213 Se
   0.6229564881872277    0.1425508823807805    0.3229896502366213 Se
   0.6401978674975726    0.2459991582428495    0.3229896502366213 Se
   0.6574392468079171    0.3494474341049185    0.3229896502366213 Se
   0.6746806261182623    0.4528957099669874    0.3229896502366213 Se
   0.6919220054286069    0.5563439858290564    0.3229896502366213 Se
   0.7091633847389516    0.6597922616911254    0.3229896502366213 Se
   0.7264047640492964    0.7632405375531945    0.3229896502366213 Se
   0.7436461433596411    0.8666888134152634    0.3229896502366214 Se
   0.7608875226699860    0.9701370892773324    0.3229896502366213 Se
   0.4333013157734347    0.0046198478980218    0.3229896502366213 Se
   0.4505426950837794    0.1080681237600908    0.3229896502366213 Se
   0.4677840743941242    0.2115163996221598    0.3229896502366213 Se
   0.4850254537044690    0.3149646754842288    0.3229896502366213 Se
   0.5022668330148139    0.4184129513462978    0.3229896502366213 Se
   0.5195082123251585    0.5218612272083667    0.3229896502366213 Se
   0.5367495916355035    0.6253095030704358    0.3229896502366213 Se
   0.5539909709458483    0.7287577789325048    0.3229896502366213 Se
   0.5712323502561931    0.8322060547945738    0.3229896502366213 Se
   0.5884737295665377    0.9356543306566427    0.3229896502366214 Se
   0.2781289019803311    0.0735853651394011    0.3229896502366213 Se
   0.2953702812906760    0.1770336410014701    0.3229896502366213 Se
   0.3126116606010208    0.2804819168635391    0.3229896502366213 Se
   0.3298530399113655    0.3839301927256081    0.3229896502366213 Se
   0.3470944192217104    0.4873784685876771    0.3229896502366213 Se
   0.3643357985320551    0.5908267444497461    0.3229896502366213 Se
   0.3815771778423997    0.6942750203118152    0.3229896502366213 Se
   0.3988185571527447    0.7977232961738842    0.3229896502366213 Se
   0.4160599364630895    0.9011715720359531    0.3229896502366213 Se
   0.1057151088768829    0.0391026065187114    0.3229896502366213 Se
   0.1229564881872276    0.1425508823807805    0.3229896502366213 Se
   0.1401978674975725    0.2459991582428494    0.3229896502366213 Se
   0.1574392468079173    0.3494474341049185    0.3229896502366213 Se
   0.1746806261182622    0.4528957099669874    0.3229896502366213 Se
   0.1919220054286071    0.5563439858290564    0.3229896502366213 Se
   0.2091633847389516    0.6597922616911256    0.3229896502366213 Se
   0.2264047640492964    0.7632405375531945    0.3229896502366213 Se
   0.2436461433596410    0.8666888134152635    0.3229896502366213 Se
   0.2608875226699861    0.9701370892773324    0.3229896502366213 Se
   0.9333013157734347    0.0046198478980218    0.3229896502366213 Se
   0.9505426950837794    0.1080681237600908    0.3229896502366213 Se
   0.9677840743941243    0.2115163996221598    0.3229896502366213 Se
   0.9850254537044690    0.3149646754842287    0.3229896502366213 Se
   0.0022668330148139    0.4184129513462978    0.3229896502366213 Se
   0.0195082123251586    0.5218612272083668    0.3229896502366213 Se
   0.0367495916355034    0.6253095030704359    0.3229896502366213 Se
   0.0539909709458483    0.7287577789325048    0.3229896502366213 Se
   0.0712323502561929    0.8322060547945739    0.3229896502366213 Se
   0.0884737295665378    0.9356543306566427    0.3229896502366213 Se
   0.7144266021157081    0.0276932046548938    0.2673459347889959 Se
   0.7316679814260529    0.1311414805169628    0.2673459347889959 Se
   0.7489093607363978    0.2345897563790318    0.2673459347889959 Se
   0.7661507400467426    0.3380380322411008    0.2673459347889959 Se
   0.7833921193570872    0.4414863081031699    0.2673459347889959 Se
   0.8006334986674321    0.5449345839652389    0.2673459347889959 Se
   0.8178748779777767    0.6483828598273079    0.2673459347889959 Se
   0.8351162572881216    0.7518311356893769    0.2673459347889959 Se
   0.8523576365984669    0.8552794115514459    0.2673459347889959 Se
   0.5420128090122600    0.9932104460342042    0.2673459347889959 Se
   0.5592541883226047    0.0966587218962731    0.2673459347889959 Se
   0.5764955676329497    0.2001069977583421    0.2673459347889959 Se
   0.5937369469432942    0.3035552736204111    0.2673459347889959 Se
   0.6109783262536391    0.4070035494824801    0.2673459347889959 Se
   0.6282197055639838    0.5104518253445490    0.2673459347889959 Se
   0.6454610848743287    0.6139001012066182    0.2673459347889959 Se
   0.6627024641846733    0.7173483770686871    0.2673459347889959 Se
   0.6799438434950182    0.8207966529307562    0.2673459347889959 Se
   0.6971852228053633    0.9242449287928252    0.2673459347889959 Se
   0.3695990159088117    0.9587276874135144    0.2673459347889959 Se
   0.3868403952191565    0.0621759632755835    0.2673459347889959 Se
   0.4040817745295012    0.1656242391376525    0.2673459347889959 Se
   0.4213231538398460    0.2690725149997215    0.2673459347889959 Se
   0.4385645331501909    0.3725207908617905    0.2673459347889959 Se
   0.4558059124605355    0.4759690667238595    0.2673459347889959 Se
   0.4730472917708804    0.5794173425859284    0.2673459347889959 Se
   0.4902886710812250    0.6828656184479975    0.2673459347889959 Se
   0.5075300503915698    0.7863138943100665    0.2673459347889959 Se
   0.5247714297019146    0.8897621701721355    0.2673459347889959 Se
   0.2144266021157082    0.0276932046548938    0.2673459347889959 Se
   0.2316679814260529    0.1311414805169628    0.2673459347889959 Se
   0.2489093607363977    0.2345897563790317    0.2673459347889959 Se
   0.2661507400467426    0.3380380322411008    0.2673459347889959 Se
   0.2833921193570872    0.4414863081031697    0.2673459347889959 Se
   0.3006334986674322    0.5449345839652389    0.2673459347889959 Se
   0.3178748779777769    0.6483828598273077    0.2673459347889959 Se
   0.3351162572881217    0.7518311356893768    0.2673459347889959 Se
   0.3523576365984664    0.8552794115514458    0.2673459347889959 Se
   0.0420128090122599    0.9932104460342042    0.2673459347889959 Se