Nb26 Bi36 Se106
1.0
  12.4880820497693499    0.0000000000000000    0.0000000000000008
   6.2440410245157727   10.8149963002304119    0.0000000000000008
   0.0000000000000000    0.0000000000000000   49.9893053307188922
Nb Bi Se
26 36 106
direct
   0.0355569715799561    0.0259016182055738    0.3575850416704623 Nb
   0.1177159029966221    0.2660307877765234    0.3568487798017423 Nb
   0.4260134263739707    0.1908817235535946    0.3569954380204384 Nb
   0.7238133317325467    0.1049374091754518    0.3553603125038500 Nb
   0.1822190953879952    0.4946928365610808    0.3556702882580510 Nb
   0.5004403701581421    0.4181072588007216    0.3568880087273587 Nb
   0.7991015294829343    0.3434820879863294    0.3534808849555164 Nb
   0.2609226624792119    0.7232314468774997    0.3548797703641294 Nb
   0.5688697195372368    0.6431903428142495    0.3565171934403454 Nb
   0.8878565896953874    0.5759261263632455    0.3582569626778915 Nb
   0.3426399489173887    0.9552630826779813    0.3555369303351835 Nb
   0.6539851624593613    0.8806783999370761    0.3556918441585170 Nb
   0.9482037656648716    0.8056198208395577    0.3571339362407234 Nb
   0.0377031626615460    0.0260538900039101    0.2331487717930357 Nb
   0.1157933384207444    0.2559208535767275    0.2340741561873011 Nb
   0.4161840485845986    0.1924972216357279    0.2344386521582618 Nb
   0.7279279736017966    0.1143235158867682    0.2323922972017022 Nb
   0.1838899524107268    0.4919392373855588    0.2345840868940328 Nb
   0.4882500181344719    0.4180816343980297    0.2336755085072513 Nb
   0.7930094800206283    0.3448660331152172    0.2340839799712096 Nb
   0.2609209551388413    0.7314940840000239    0.2330406061050008 Nb
   0.5863958500687101    0.6451242969610491    0.2340091251683661 Nb
   0.8792957399688426    0.5739880590659396    0.2370879709474716 Nb
   0.3499426645101044    0.9583568430746034    0.2328116262145792 Nb
   0.6569096765465151    0.8693901909878879    0.2359683746380971 Nb
   0.9498044961583767    0.8051289727274960    0.2341746695852970 Nb
   0.2290050897145446    0.2142127414472083    0.7676910211094038 Bi
   0.2169676032700102    0.8830982822907354    0.7665505283368839 Bi
   0.2114978372900439    0.5426672497081469    0.7672234836354290 Bi
   0.5535813218389690    0.2138262274351415    0.7665504264662866 Bi
   0.5581964830909001    0.8834335093693790    0.7689621138707007 Bi
   0.5600925756024756    0.5435324911331485    0.7672524212944759 Bi
   0.8977717964509078    0.2082514629156603    0.7675427315088637 Bi
   0.8848187198865187    0.8815288869888674    0.7671406318550328 Bi
   0.8941339593057319    0.5404302967026410    0.7665148859831035 Bi
   1.0077306435271267    0.3259887774531493    0.6860220034407258 Bi
   0.9934590802462894    0.9956370595814240    0.6888358239917782 Bi
   1.0053233347190103    0.6548511846271712    0.6872210442937109 Bi
   0.3317395621147640    0.3314952241078982    0.6871490793774045 Bi
   0.3439506067343809    0.9829736151048422    0.6885556674521137 Bi
   0.3216019821008366    0.6645880102880748    0.6845984518685366 Bi
   0.6575933696945121    0.3210126095059155    0.6868365482535930 Bi
   0.6584212775238213    0.9950224352201390    0.6869158027803087 Bi
   0.6700350447781599    0.6507039285483741    0.6898107233257937 Bi
   1.0025756222225999    0.3129159691860245    0.5662074225507367 Bi
   0.9862675228001614    1.0006779521783258    0.5675583542310949 Bi
   0.9947561612590538    0.6562777034873243    0.5674850833106957 Bi
   0.3276396123289694    0.3306809620545663    0.5655353027181725 Bi
   0.3262805321668832    1.0112375860501523    0.5654975792937375 Bi
   0.3274000725713211    0.6592035888961244    0.5654154142481566 Bi
   0.6598837238030053    0.3259585456887608    0.5657601372919513 Bi
   0.6653855704698286    0.9955853793848829    0.5646406433884369 Bi
   0.6630953826382939    0.6610288125950561    0.5648597462376829 Bi
   0.1132242380268348    0.4458925676550269    0.4879550673831951 Bi
   0.0968164059747279    0.1101605673835409    0.4855671264241582 Bi
   0.1015781445279325    0.7728168007709287    0.4884343249711252 Bi
   0.4290347381886431    0.4383257212435547    0.4875431791888559 Bi
   0.4339910290870334    0.1140188196016485    0.4877429425187547 Bi
   0.4375325621279407    0.7814538458720044    0.4860203095758836 Bi
   0.7743603734449810    0.4330931933030955    0.4870565271639902 Bi
   0.7644073710646297    0.1118910038415649    0.4865328869389003 Bi
   0.7579800534224340    0.7788056640774647    0.4867175530027605 Bi
   0.9126322505424279    0.9838678793935349    0.1993872659704738 Se
   0.9889472004535104    0.2080786541703218    0.2024802091575733 Se
   0.2958222720688441    0.1325945631199044    0.2013424930966673 Se
   0.5962428664869154    0.0584201696052222    0.2000170565575380 Se
   0.0558768270631709    0.4409898874868763    0.2022496126567230 Se
   0.3755325150427249    0.3633463601694170    0.2011269623435412 Se
   0.6766286448841231    0.2907196316755306    0.1989049125848195 Se
   0.1385384234075499    0.6761205070048407    0.2005649245533028 Se
   0.4373205446289448    0.6078618041856698    0.2009002147047506 Se
   0.7582310889211106    0.5156821557724177    0.2000245909154029 Se
   0.2154768469186982    0.9066284254937256    0.2008879250773890 Se
   0.5232764019604724    0.8240185843162616    0.1987980963983686 Se
   0.8273295131735069    0.7552193595752900    0.1984756333689152 Se
   0.0791765058160721    0.8572932878563922    0.3228516503445002 Se
   0.1692187772732769    0.0854546054981701    0.3249144445524694 Se
   0.4679701775493452    0.0156520708305449    0.3227619814080608 Se
   0.7682153314347357    0.9337831274469466    0.3232896137293853 Se
   0.2378645963253553    0.3125545566543647    0.3229509609777801 Se
   0.5410338288306527    0.2418248948701293    0.3234402384993855 Se
   0.8620410527651700    0.1465481097395255    0.3227478709764623 Se
   0.3172636700899534    0.5404583251048782    0.3229631629906476 Se
   0.6304222371903146    0.4754603946895271    0.3232841034040301 Se
   0.9358851741958862    0.3984675419772406    0.3250178106745960 Se
   0.3869133602598007    0.7728734979840476    0.3244675754895056 Se
   0.6991459693886538    0.6960739536463755    0.3248662113402910 Se
   0.0031185619345409    0.6248760322754221    0.3226172450682598 Se
   0.8974262006679984    0.9882590691452232    0.2653984674260451 Se
   0.9894308885577514    0.2014311077994111    0.2661295198009317 Se
   0.2953841047886366    0.1452009838529037    0.2666831590453497 Se
   0.6023168584874128    0.0585004981117523    0.2691127733032247 Se
   0.0594832398851105    0.4316134044708501    0.2668121936024939 Se
   0.3714026913516093    0.3664623043265690    0.2688717917474632 Se
   0.6651170656405870    0.2956693030448038    0.2657575369569682 Se
   0.1337439754384705    0.6691510769122200    0.2682652695137391 Se
   0.4528104049719782    0.5906702784189533    0.2663184078551238 Se
   0.7525260976667060    0.5139205517971247    0.2665762526421714 Se
   0.2052035250886237    0.9079916514547979    0.2670650697639697 Se
   0.5170691305008539    0.8274424348547172    0.2671301834106956 Se
   0.8347136394145768    0.7433800761338770    0.2685802094196912 Se
   0.0842552524705433    0.8574378257782541    0.3916619293740405 Se
   0.1586124119584331    0.0793349292411007    0.3903450711255253 Se
   0.4659018744697863    0.0073396499326029    0.3887971920920000 Se
   0.7717186922774870    0.9316337381037597    0.3888779317216232 Se
   0.2401746377742374    0.3083091372291383    0.3897634314384319 Se
   0.5536719964377214    0.2413751443600977    0.3915126110919043 Se
   0.8539819098374326    0.1636564865102173    0.3890528587121337 Se
   0.3211117047160841    0.5348263755497034    0.3916705805154445 Se
   0.6150231226063654    0.4753570918733784    0.3912553829466717 Se
   0.9372700933904624    0.3839850232943496    0.3909854667156917 Se
   0.3923910820372243    0.7761243787646196    0.3915071847556045 Se
   0.6940882625544753    0.7081952221027302    0.3894609566004889 Se
   0.0154553445582901    0.6192197501839405    0.3923791852300054 Se
   0.0011582096643252    0.3297399711963050    0.7993312531832584 Se
   0.0074649979131722    0.9766877468940692    0.7993088391154143 Se
   0.0013598153149822    0.6670582363905005    0.7988381174461751 Se
   0.3360946140139373    0.3159783697990741    0.8009606404779669 Se
   0.3323137746240926    0.9949142447881600    0.7987027595677528 Se
   0.3299830106774428    0.6576495265103839    0.7985963945419593 Se
   0.6792086855251311    0.3174555860980668    0.7991749833544182 Se
   0.6825123984866565    0.9804346826924447    0.8012205739290014 Se
   0.6710393314679413    0.6469811816646548    0.8004782823747428 Se
   0.1112552743839130    0.4436915427614676    0.7269105910127203 Se
   0.1100042855927577    0.1037951530079137    0.7269609163157108 Se
   0.1132734838607171    0.7748872737110014    0.7265499204292780 Se
   0.4504070735357920    0.4382439884660648    0.7265363670502175 Se
   0.4421981264409450    0.1070916165584128    0.7277687183491216 Se
   0.4493857533347048    0.7628161386011458    0.7249988760410880 Se
   0.7794302576431916    0.4357404693453450    0.7296378225979392 Se
   0.7851907495163251    0.0911707114283242    0.7264868965277446 Se
   0.7834639157906563    0.7613865659037676    0.7282359544518637 Se
   0.2161614990489625    0.2166796579163420    0.6544015405178629 Se
   0.2218706577670908    0.8792693255524572    0.6529627075182325 Se
   0.2209789725913316    0.5439747855669463    0.6548034563196783 Se
   0.5569567875427485    0.2149193585804697    0.6532708406685880 Se
   0.5449495939342139    0.8818468508460515    0.6540914920524944 Se
   0.5578045146271042    0.5500149464618931    0.6559503905968976 Se
   0.8809581877861005    0.2216635822531551    0.6564652973901074 Se
   0.8838419849604672    0.8907645438029053    0.6535411842884217 Se
   0.8966102485178330    0.5379748864295675    0.6526185772551376 Se
   0.1070004702818444    0.4359284835141896    0.5989322495685760 Se
   0.1082611729136806    0.1025824567759999    0.5986948302660632 Se
   0.1027022574085513    0.7697576513947270    0.6004153842048197 Se
   0.4441378334969789    0.4375847437233842    0.5959626972388467 Se
   0.4439336192016973    0.1100253536703517    0.6007851221054727 Se
   0.4292453655893599    0.7817220989534099    0.5988364310426187 Se
   0.7734513979380169    0.4463345425456712    0.5982283879741721 Se
   0.7642335466898300    0.1065990888426406    0.5997064311813879 Se
   0.7673207987052372    0.7754939305763290    0.5978644572340192 Se
   0.2176748895610825    0.2166355701276731    0.5253796865219990 Se
   0.2062306461960981    0.9010076789634743    0.5263853715153778 Se
   0.2175813913209287    0.5523707763615726    0.5273622806486806 Se
   0.5531253687553427    0.2278487706405500    0.5267684998257399 Se
   0.5467052900919565    0.8861143649285521    0.5273495414804811 Se
   0.5518363773132438    0.5524944601409909    0.5245166463747594 Se
   0.8760882480547227    0.2230808863648392    0.5275257955819991 Se
   0.8740105880079195    0.8860030473782647    0.5256729573456864 Se
   0.8776457502279877    0.5533728721968345    0.5275873235829365 Se
   1.0022741944882301    0.3426958616891446    0.4541834244704037 Se
   0.9936083907078651    1.0031222521797496    0.4534852888353292 Se
   0.9884674590682595    0.6576645815867658    0.4533315603045645 Se
   0.3321741211477342    0.3242784243933692    0.4562362743509751 Se
   0.3258324167864241    0.9962040278268010    0.4534647376716011 Se
   0.3322520852977504    0.6638304030503657    0.4552985873342459 Se
   0.6450158294956368    0.3352738639101600    0.4545249804132614 Se
   0.6580422329598432    0.9941429760103209    0.4535870099352502 Se
   0.6612180338906193    0.6628129970148843    0.4536134792506987 Se
