{'film_sl_vectors': array([[-14.59789743, -10.83612859,  -0.        ],
       [-27.11038095,  32.50838577,   0.        ]]), 'substrate_sl_vectors': array([[ 3.46357078, 17.99724171,  0.        ],
       [41.56284938, -5.99908057, -0.        ]]), 'film_vectors': array([[ 4.17082784,  0.        ,  0.        ],
       [-2.08541392,  3.61204286,  0.        ]]), 'substrate_vectors': array([[ 3.46357078,  0.        ,  0.        ],
       [-1.73178539,  2.99954028,  0.        ]]), 'film_transformation': array([[ 1., 21.],
       [ 0., 51.]]), 'substrate_transformation': array([[ 1., 20.],
       [ 0., 74.]]), 'strain': Strain([[-0.00247853  0.00895485  0.        ]
 [ 0.00895485  0.00326601  0.        ]
 [ 0.          0.          0.        ]]), 'von_mises_strain': 0.01086222928715413, 'termination': ('default', 'default'), 'film_thickness': 1, 'substrate_thickness': 1, 'signed_angle': -137.4801702045631, 'decomposition_angle': 137.78365116025853}