Nb32 Bi44 Se130
1.0
   6.9271415635605562    0.0000000000000000    0.0000000000000004
   3.4635707804501825   23.9963222793859252    0.0000000000000015
   0.0000000000000000    0.0000000000000000   44.4624158930297497
Nb Bi Se
32 44 130
direct
   0.4639229871429492    0.7279769739881495    0.3447480443666843 Nb
   0.9639229871429495    0.7279769739881496    0.3447480443666843 Nb
   0.2764229871429494    0.6029769739881496    0.3447480443666843 Nb
   0.7764229871429495    0.6029769739881496    0.3447480443666843 Nb
   0.5889229871429493    0.4779769739881496    0.3447480443666843 Nb
   0.0889229871429492    0.4779769739881495    0.3447480443666843 Nb
   0.4014229871429495    0.3529769739881496    0.3447480443666843 Nb
   0.9014229871429492    0.3529769739881496    0.3447480443666843 Nb
   0.2139229871429491    0.2279769739881496    0.3447480443666843 Nb
   0.7139229871429491    0.2279769739881496    0.3447480443666843 Nb
   0.5264229871429489    0.1029769739881496    0.3447480443666843 Nb
   0.0264229871429490    0.1029769739881496    0.3447480443666843 Nb
   0.3389229871429491    0.9779769739881496    0.3447480443666843 Nb
   0.8389229871429490    0.9779769739881496    0.3447480443666843 Nb
   0.1514229871429490    0.8529769739881496    0.3447480443666843 Nb
   0.6514229871429497    0.8529769739881496    0.3447480443666843 Nb
   0.4639843892058819    0.7275704050698858    0.2065134900768984 Nb
   0.9639843892058819    0.7275704050698858    0.2065134900768984 Nb
   0.2764843892058815    0.6025704050698859    0.2065134900768984 Nb
   0.7764843892058817    0.6025704050698859    0.2065134900768984 Nb
   0.5889843892058819    0.4775704050698859    0.2065134900768984 Nb
   0.0889843892058819    0.4775704050698859    0.2065134900768984 Nb
   0.4014843892058818    0.3525704050698859    0.2065134900768983 Nb
   0.9014843892058817    0.3525704050698859    0.2065134900768984 Nb
   0.2139843892058815    0.2275704050698859    0.2065134900768984 Nb
   0.7139843892058818    0.2275704050698859    0.2065134900768983 Nb
   0.5264843892058814    0.1025704050698860    0.2065134900768984 Nb
   0.0264843892058816    0.1025704050698860    0.2065134900768984 Nb
   0.3389843892058815    0.9775704050698860    0.2065134900768984 Nb
   0.8389843892058815    0.9775704050698860    0.2065134900768984 Nb
   0.1514843892058818    0.8525704050698860    0.2065134900768984 Nb
   0.6514843892058816    0.8525704050698859    0.2065134900768984 Nb
   0.4167719146586913    0.7720505828878433    0.7944001694220465 Bi
   0.9622264601132366    0.6811414919787523    0.7944001694220465 Bi
   0.5076810055677826    0.5902324010696613    0.7944001694220465 Bi
   0.0531355510223277    0.4993233101605706    0.7944001694220465 Bi
   0.5985900964768734    0.4084142192514797    0.7944001694220465 Bi
   0.1440446419314184    0.3175051283423888    0.7944001694220465 Bi
   0.6894991873859642    0.2265960374332979    0.7944001694220465 Bi
   0.2349537328405094    0.1356869465242069    0.7944001694220465 Bi
   0.7804082782950549    0.0447778556151159    0.7944001694220465 Bi
   0.3258628237496003    0.9538687647060251    0.7944001694220465 Bi
   0.8713173692041460    0.8629596737969342    0.7944001694220465 Bi
   0.0864272321539581    0.7731430471819747    0.7047369577364245 Bi
   0.6318817776085037    0.6822339562728839    0.7047369577364245 Bi
   0.1773363230630491    0.5913248653637929    0.7047369577364245 Bi
   0.7227908685175946    0.5004157744547020    0.7047369577364245 Bi
   0.2682454139721400    0.4095066835456110    0.7047369577364245 Bi
   0.8136999594266853    0.3185975926365203    0.7047369577364245 Bi
   0.3591545048812310    0.2276885017274294    0.7047369577364245 Bi
   0.9046090503357762    0.1367794108183384    0.7047369577364245 Bi
   0.4500635957903218    0.0458703199092475    0.7047369577364245 Bi
   0.9955181412448670    0.9549612290001567    0.7047369577364245 Bi
   0.5409726866994127    0.8640521380910656    0.7047369577364245 Bi
   0.0825894500229649    0.7760056036060123    0.5688586317166682 Bi
   0.6280439954775108    0.6850965126969215    0.5688586317166682 Bi
   0.1734985409320557    0.5941874217878305    0.5688586317166682 Bi
   0.7189530863866014    0.5032783308787396    0.5688586317166682 Bi
   0.2644076318411468    0.4123692399696487    0.5688586317166682 Bi
   0.8098621772956922    0.3214601490605578    0.5688586317166682 Bi
   0.3553167227502376    0.2305510581514669    0.5688586317166682 Bi
   0.9007712682047829    0.1396419672423761    0.5688586317166682 Bi
   0.4462258136593285    0.0487328763332851    0.5688586317166682 Bi
   0.9916803591138739    0.9578237854241942    0.5688586317166682 Bi
   0.5371349045684192    0.8669146945151032    0.5688586317166682 Bi
   0.7521933073902367    0.7760775008847708    0.4795310425214356 Bi
   0.2976478528447819    0.6851684099756800    0.4795310425214357 Bi
   0.8431023982993279    0.5942593190665888    0.4795310425214357 Bi
   0.3885569437538733    0.5033502281574980    0.4795310425214357 Bi
   0.9340114892084186    0.4124411372484070    0.4795310425214357 Bi
   0.4794660346629640    0.3215320463393161    0.4795310425214357 Bi
   0.0249205801175094    0.2306229554302253    0.4795310425214357 Bi
   0.5703751255720551    0.1397138645211344    0.4795310425214357 Bi
   0.1158296710266003    0.0488047736120434    0.4795310425214357 Bi
   0.6612842164811459    0.9578956827029526    0.4795310425214357 Bi
   0.2067387619356916    0.8669865917938616    0.4795310425214356 Bi
   0.6932218804650920    0.7692223784173861    0.1686817922364798 Se
   0.1932218804650920    0.7692223784173864    0.1686817922364798 Se
   0.5057218804650918    0.6442223784173864    0.1686817922364798 Se
   0.0057218804650918    0.6442223784173864    0.1686817922364798 Se
   0.8182218804650920    0.5192223784173863    0.1686817922364798 Se
   0.3182218804650920    0.5192223784173863    0.1686817922364798 Se
   0.6307218804650917    0.3942223784173863    0.1686817922364798 Se
   0.1307218804650917    0.3942223784173863    0.1686817922364797 Se
   0.4432218804650918    0.2692223784173863    0.1686817922364798 Se
   0.9432218804650916    0.2692223784173863    0.1686817922364798 Se
   0.7557218804650917    0.1442223784173863    0.1686817922364798 Se
   0.2557218804650918    0.1442223784173863    0.1686817922364798 Se
   0.5682218804650917    0.0192223784173863    0.1686817922364798 Se
   0.0682218804650917    0.0192223784173863    0.1686817922364798 Se
   0.3807218804650922    0.8942223784173865    0.1686817922364798 Se
   0.8807218804650918    0.8942223784173862    0.1686817922364798 Se
   0.4222970057821318    0.8113055636215930    0.3069115334886654 Se
   0.9222970057821324    0.8113055636215930    0.3069115334886655 Se
   0.2347970057821321    0.6863055636215931    0.3069115334886655 Se
   0.7347970057821321    0.6863055636215931    0.3069115334886654 Se
   0.5472970057821320    0.5613055636215931    0.3069115334886655 Se
   0.0472970057821320    0.5613055636215931    0.3069115334886655 Se
   0.3597970057821323    0.4363055636215932    0.3069115334886655 Se
   0.8597970057821323    0.4363055636215933    0.3069115334886654 Se
   0.1722970057821323    0.3113055636215932    0.3069115334886654 Se
   0.6722970057821323    0.3113055636215932    0.3069115334886655 Se
   0.4847970057821321    0.1863055636215932    0.3069115334886654 Se
   0.9847970057821320    0.1863055636215932    0.3069115334886654 Se
   0.2972970057821320    0.0613055636215932    0.3069115334886654 Se
   0.7972970057821321    0.0613055636215932    0.3069115334886654 Se
   0.1097970057821321    0.9363055636215932    0.3069115334886654 Se
   0.6097970057821321    0.9363055636215933    0.3069115334886654 Se
   0.6931560204348051    0.7692653587836895    0.2443510399711945 Se
   0.1931560204348055    0.7692653587836894    0.2443510399711945 Se
   0.5056560204348053    0.6442653587836893    0.2443510399711945 Se
   0.0056560204348053    0.6442653587836895    0.2443510399711945 Se
   0.8181560204348054    0.5192653587836893    0.2443510399711945 Se
   0.3181560204348053    0.5192653587836892    0.2443510399711945 Se
   0.6306560204348051    0.3942653587836893    0.2443510399711945 Se
   0.1306560204348050    0.3942653587836893    0.2443510399711945 Se
   0.4431560204348051    0.2692653587836894    0.2443510399711945 Se
   0.9431560204348051    0.2692653587836895    0.2443510399711945 Se
   0.7556560204348050    0.1442653587836894    0.2443510399711945 Se
   0.2556560204348050    0.1442653587836895    0.2443510399711945 Se
   0.5681560204348051    0.0192653587836894    0.2443510399711945 Se
   0.0681560204348051    0.0192653587836894    0.2443510399711945 Se
   0.3806560204348051    0.8942653587836893    0.2443510399711945 Se
   0.8806560204348051    0.8942653587836893    0.2443510399711945 Se
   0.4222094651339267    0.8113450715200869    0.3825808312104175 Se
   0.9222094651339264    0.8113450715200869    0.3825808312104175 Se
   0.2347094651339262    0.6863450715200869    0.3825808312104175 Se
   0.7347094651339265    0.6863450715200869    0.3825808312104175 Se
   0.5472094651339260    0.5613450715200869    0.3825808312104175 Se
   0.0472094651339262    0.5613450715200869    0.3825808312104175 Se
   0.3597094651339261    0.4363450715200870    0.3825808312104175 Se
   0.8597094651339262    0.4363450715200870    0.3825808312104175 Se
   0.1722094651339263    0.3113450715200869    0.3825808312104175 Se
   0.6722094651339262    0.3113450715200869    0.3825808312104175 Se
   0.4847094651339261    0.1863450715200870    0.3825808312104175 Se
   0.9847094651339262    0.1863450715200870    0.3825808312104175 Se
   0.2972094651339261    0.0613450715200870    0.3825808312104175 Se
   0.7972094651339264    0.0613450715200870    0.3825808312104175 Se
   0.1097094651339262    0.9363450715200868    0.3825808312104175 Se
   0.6097094651339263    0.9363450715200868    0.3825808312104176 Se
   0.0817556975978272    0.7720718150848568    0.8313182077635204 Se
   0.6272102430523725    0.6811627241757658    0.8313182077635204 Se
   0.1726647885069180    0.5902536332666749    0.8313182077635204 Se
   0.7181193339614638    0.4993445423575839    0.8313182077635204 Se
   0.2635738794160092    0.4084354514484930    0.8313182077635204 Se
   0.8090284248705544    0.3175263605394023    0.8313182077635204 Se
   0.3544829703250998    0.2266172696303113    0.8313182077635204 Se
   0.8999375157796452    0.1357081787212204    0.8313182077635204 Se
   0.4453920612341910    0.0447990878121294    0.8313182077635204 Se
   0.9908466066887361    0.9538899969030386    0.8313182077635204 Se
   0.5363011521432823    0.8629809059939477    0.8313182077635204 Se
   0.7534027720839447    0.7723305024699934    0.7495056388254160 Se
   0.2988573175384898    0.6814214115609025    0.7495056388254160 Se
   0.8443118629930355    0.5905123206518116    0.7495056388254160 Se
   0.3897664084475809    0.4996032297427208    0.7495056388254160 Se
   0.9352209539021263    0.4086941388336298    0.7495056388254160 Se
   0.4806754993566715    0.3177850479245389    0.7495056388254160 Se
   0.0261300448112169    0.2268759570154481    0.7495056388254160 Se
   0.5715845902657626    0.1359668661063571    0.7495056388254160 Se
   0.1170391357203078    0.0450577751972662    0.7495056388254160 Se
   0.6624936811748531    0.9541486842881753    0.7495056388254160 Se
   0.2079482266293992    0.8632395933790844    0.7495056388254160 Se
   0.4185546918901087    0.7727156866163196    0.6677845033197067 Se
   0.9640092373446543    0.6818065957072288    0.6677845033197067 Se
   0.5094637827991999    0.5908975047981377    0.6677845033197067 Se
   0.0549183282537452    0.4999884138890468    0.6677845033197067 Se
   0.6003728737082910    0.4090793229799559    0.6677845033197067 Se
   0.1458274191628358    0.3181702320708650    0.6677845033197067 Se
   0.6912819646173815    0.2272611411617741    0.6677845033197067 Se
   0.2367365100719268    0.1363520502526833    0.6677845033197067 Se
   0.7821910555264724    0.0454429593435923    0.6677845033197067 Se
   0.3276456009810175    0.9545338684345014    0.6677845033197067 Se
   0.8731001464355632    0.8636247775254104    0.6677845033197067 Se
   0.7524527807845841    0.7759044949715639    0.6055580957863087 Se
   0.2979073262391298    0.6849954040624729    0.6055580957863087 Se
   0.8433618716936753    0.5940863131533820    0.6055580957863087 Se
   0.3888164171482204    0.5031772222442912    0.6055580957863087 Se
   0.9342709626027659    0.4122681313352002    0.6055580957863087 Se
   0.4797255080573111    0.3213590404261094    0.6055580957863087 Se
   0.0251800535118565    0.2304499495170184    0.6055580957863087 Se
   0.5706345989664022    0.1395408586079276    0.6055580957863087 Se
   0.1160891444209476    0.0486317676988366    0.6055580957863087 Se
   0.6615436898754928    0.9577226767897458    0.6055580957863087 Se
   0.2069982353300388    0.8668135858806549    0.6055580957863087 Se
   0.4164737958215475    0.7762820199897893    0.5241890951556734 Se
   0.9619283412760931    0.6853729290806985    0.5241890951556734 Se
   0.5073828867306382    0.5944638381716074    0.5241890951556734 Se
   0.0528374321851841    0.5035547472625166    0.5241890951556734 Se
   0.5982919776397297    0.4126456563534256    0.5241890951556734 Se
   0.1437465230942749    0.3217365654443348    0.5241890951556734 Se
   0.6892010685488205    0.2308274745352439    0.5241890951556734 Se
   0.2346556140033655    0.1399183836261530    0.5241890951556734 Se
   0.7801101594579111    0.0490092927170620    0.5241890951556734 Se
   0.3255647049124564    0.9581002018079712    0.5241890951556734 Se
   0.8710192503670020    0.8671911108988801    0.5241890951556734 Se
   0.0815134040715222    0.7760289901634538    0.4427015086099987 Se
   0.6269679495260683    0.6851198992543630    0.4427015086099987 Se
   0.1724224949806132    0.5942108083452721    0.4427015086099987 Se
   0.7178770404351587    0.5033017174361811    0.4427015086099987 Se
   0.2633315858897043    0.4123926265270902    0.4427015086099987 Se
   0.8087861313442494    0.3214835356179992    0.4427015086099987 Se
   0.3542406767987947    0.2305744447089084    0.4427015086099987 Se
   0.8996952222533402    0.1396653537998175    0.4427015086099987 Se
   0.4451497677078857    0.0487562628907266    0.4427015086099987 Se
   0.9906043131624310    0.9578471719816357    0.4427015086099987 Se
   0.5360588586169770    0.8669380810725447    0.4427015086099987 Se
