Nb38 Bi48 Se148
1.0
  15.0973550213515413    0.0000000000000000    0.0000000000000009
   7.5486775104850574   13.0746929792577991    0.0000000000000009
   0.0000000000000000    0.0000000000000000   44.4624158930297497
Nb Bi Se
38 48 148
direct
   0.0484333396091724    0.9700089994821398    0.3447480443666842 Nb
   0.1536964975039092    0.1279037363242452    0.3447480443666842 Nb
   0.4168543922407513    0.0226405784295084    0.3447480443666842 Nb
   0.2589596553986458    0.2857984731663504    0.3447480443666842 Nb
   0.5221175501354880    0.1805353152716136    0.3447480443666842 Nb
   0.7852754448723301    0.0752721573768769    0.3447480443666842 Nb
   0.1010649185565408    0.5489563679031925    0.3447480443666842 Nb
   0.3642228132933829    0.4436932100084556    0.3447480443666842 Nb
   0.6273807080302248    0.3384300521137188    0.3447480443666842 Nb
   0.8905386027670668    0.2331668942189821    0.3447480443666842 Nb
   0.2063280764512775    0.7068511047452978    0.3447480443666842 Nb
   0.4694859711881195    0.6015879468505609    0.3447480443666842 Nb
   0.7326438659249618    0.4963247889558242    0.3447480443666842 Nb
   0.9958017606618039    0.3910616310610874    0.3447480443666842 Nb
   0.3115912343460142    0.8647458415874031    0.3447480443666842 Nb
   0.5747491290828559    0.7594826836926662    0.3447480443666842 Nb
   0.8379070238196984    0.6542195257979293    0.3447480443666842 Nb
   0.6800122869775932    0.9173774205347716    0.3447480443666842 Nb
   0.9431701817144351    0.8121142626400347    0.3447480443666843 Nb
   0.0484224210980639    0.9706638771558050    0.2065134900768983 Nb
   0.1536855789928007    0.1285586139979103    0.2065134900768983 Nb
   0.4168434737296426    0.0232954561031734    0.2065134900768983 Nb
   0.2589487368875374    0.2864533508400156    0.2065134900768983 Nb
   0.5221066316243795    0.1811901929452787    0.2065134900768983 Nb
   0.7852645263612218    0.0759270350505420    0.2065134900768983 Nb
   0.1010540000454323    0.5496112455768576    0.2065134900768983 Nb
   0.3642118947822743    0.4443480876821208    0.2065134900768983 Nb
   0.6273697895191165    0.3390849297873840    0.2065134900768983 Nb
   0.8905276842559584    0.2338217718926471    0.2065134900768983 Nb
   0.2063171579401689    0.7075059824189628    0.2065134900768983 Nb
   0.4694750526770111    0.6022428245242262    0.2065134900768983 Nb
   0.7326329474138531    0.4969796666294893    0.2065134900768983 Nb
   0.9957908421506952    0.3917165087347524    0.2065134900768983 Nb
   0.3115803158349059    0.8654007192610682    0.2065134900768983 Nb
   0.5747382105717480    0.7601375613663315    0.2065134900768983 Nb
   0.8378961053085900    0.6548744034715944    0.2065134900768983 Nb
   0.6800013684664847    0.9180322982084368    0.2065134900768983 Nb
   0.9431592632033270    0.8127691403136998    0.2065134900768983 Nb
   0.8592147163014032    0.5559833454901955    0.7944001694220465 Bi
   0.3592147163014030    0.5559833454901953    0.7944001694220465 Bi
   0.6925480496347362    0.3893166788235284    0.7944001694220465 Bi
   0.1925480496347362    0.3893166788235285    0.7944001694220465 Bi
   0.5258813829680696    0.2226500121568618    0.7944001694220465 Bi
   0.8592147163014031    0.0559833454901953    0.7944001694220465 Bi
   0.0258813829680697    0.2226500121568619    0.7944001694220465 Bi
   0.3592147163014029    0.0559833454901952    0.7944001694220465 Bi
   0.6925480496347363    0.8893166788235285    0.7944001694220465 Bi
   0.1925480496347364    0.8893166788235286    0.7944001694220465 Bi
   0.5258813829680697    0.7226500121568619    0.7944001694220465 Bi
   0.0258813829680696    0.7226500121568619    0.7944001694220465 Bi
   0.6933140655196153    0.5579861966961032    0.7047369577364245 Bi
   0.1933140655196152    0.5579861966961028    0.7047369577364245 Bi
   0.5266473988529485    0.3913195300294363    0.7047369577364245 Bi
   0.0266473988529487    0.3913195300294363    0.7047369577364245 Bi
   0.3599807321862820    0.2246528633627696    0.7047369577364245 Bi
   0.6933140655196153    0.0579861966961030    0.7047369577364245 Bi
   0.8599807321862821    0.2246528633627696    0.7047369577364245 Bi
   0.1933140655196153    0.0579861966961030    0.7047369577364245 Bi
   0.5266473988529486    0.8913195300294364    0.7047369577364245 Bi
   0.0266473988529487    0.8913195300294363    0.7047369577364245 Bi
   0.3599807321862821    0.7246528633627697    0.7047369577364245 Bi
   0.8599807321862822    0.7246528633627697    0.7047369577364245 Bi
   0.6894868035047604    0.5632342168068388    0.5688586317166681 Bi
   0.1894868035047603    0.5632342168068387    0.5688586317166681 Bi
   0.5228201368380936    0.3965675501401720    0.5688586317166681 Bi
   0.0228201368380938    0.3965675501401719    0.5688586317166681 Bi
   0.3561534701714270    0.2299008834735052    0.5688586317166681 Bi
   0.6894868035047603    0.0632342168068386    0.5688586317166681 Bi
   0.8561534701714271    0.2299008834735052    0.5688586317166681 Bi
   0.1894868035047603    0.0632342168068386    0.5688586317166681 Bi
   0.5228201368380937    0.8965675501401720    0.5688586317166681 Bi
   0.0228201368380937    0.8965675501401720    0.5688586317166681 Bi
   0.3561534701714271    0.7299008834735053    0.5688586317166681 Bi
   0.8561534701714270    0.7299008834735052    0.5688586317166681 Bi
   0.0242408006692240    0.5633660284845623    0.4795310425214355 Bi
   0.5242408006692238    0.5633660284845623    0.4795310425214355 Bi
   0.8575741340025574    0.3966993618178956    0.4795310425214355 Bi
   0.3575741340025574    0.3966993618178956    0.4795310425214355 Bi
   0.6909074673358908    0.2300326951512290    0.4795310425214355 Bi
   0.0242408006692240    0.0633660284845622    0.4795310425214355 Bi
   0.1909074673358908    0.2300326951512289    0.4795310425214355 Bi
   0.5242408006692240    0.0633660284845623    0.4795310425214355 Bi
   0.8575741340025573    0.8966993618178957    0.4795310425214355 Bi
   0.3575741340025573    0.8966993618178956    0.4795310425214355 Bi
   0.6909074673358906    0.7300326951512289    0.4795310425214355 Bi
   0.1909074673358906    0.7300326951512289    0.4795310425214355 Bi
   0.9255789007854531    0.9531581279248489    0.1686817922364797 Se
   0.0308420586801901    0.1110528647669542    0.1686817922364797 Se
   0.2939999534170321    0.0057897068722173    0.1686817922364797 Se
   0.1361052165749268    0.2689476016090595    0.1686817922364797 Se
   0.3992631113117690    0.1636844437143226    0.1686817922364797 Se
   0.6624210060486110    0.0584212858195858    0.1686817922364797 Se
   0.9782104797328217    0.5321054963459014    0.1686817922364797 Se
   0.2413683744696638    0.4268423384511648    0.1686817922364797 Se
   0.5045262692065058    0.3215791805564278    0.1686817922364797 Se
   0.7676841639433476    0.2163160226616910    0.1686817922364797 Se
   0.0834736376275586    0.6900002331880067    0.1686817922364797 Se
   0.3466315323644004    0.5847370752932698    0.1686817922364797 Se
   0.6097894271012425    0.4794739173985331    0.1686817922364797 Se
   0.8729473218380849    0.3742107595037963    0.1686817922364797 Se
   0.1887367955222952    0.8478949700301118    0.1686817922364797 Se
   0.4518946902591372    0.7426318121353752    0.1686817922364797 Se
   0.7150525849959792    0.6373686542406385    0.1686817922364797 Se
   0.5571578481538743    0.9005265489774805    0.1686817922364797 Se
   0.8203157428907162    0.7952633910827436    0.1686817922364797 Se
   0.0659560356078422    0.8296741776691622    0.3069115334886653 Se
   0.1712191935025790    0.9875689145112675    0.3069115334886653 Se
   0.4343770882394210    0.8823057566165307    0.3069115334886653 Se
   0.2764823513973158    0.1454636513533728    0.3069115334886653 Se
   0.5396402461341577    0.0402004934586359    0.3069115334886653 Se
   0.8027981408710000    0.9349373355638991    0.3069115334886653 Se
   0.1185876145552106    0.4086215460902148    0.3069115334886653 Se
   0.3817455092920524    0.3033583881954781    0.3069115334886653 Se
   0.6449034040288945    0.1980952303007412    0.3069115334886653 Se
   0.9080612987657369    0.0928320724060044    0.3069115334886653 Se
   0.2238507724499474    0.5665162829323200    0.3069115334886653 Se
   0.4870086671867894    0.4612531250375835    0.3069115334886653 Se
   0.7501665619236317    0.3559899671428465    0.3069115334886653 Se
   0.0133244566604737    0.2507268092481097    0.3069115334886653 Se
   0.3291139303446841    0.7244110197744253    0.3069115334886653 Se
   0.5922718250815264    0.6191478618796883    0.3069115334886653 Se
   0.8554297198183680    0.5138847039849517    0.3069115334886653 Se
   0.6975349829762629    0.7770425987217937    0.3069115334886653 Se
   0.9606928777131051    0.6717794408270572    0.3069115334886653 Se
   0.9256113018347462    0.9530763989190467    0.2443510399711945 Se
   0.0308744597294830    0.1109711357611521    0.2443510399711945 Se
   0.2940323544663250    0.0057079778664152    0.2443510399711945 Se
   0.1361376176242198    0.2688658726032573    0.2443510399711945 Se
   0.3992955123610619    0.1636027147085205    0.2443510399711945 Se
   0.6624534070979037    0.0583395568137837    0.2443510399711944 Se
   0.9782428807821145    0.5320237673400993    0.2443510399711945 Se
   0.2414007755189565    0.4267606094453626    0.2443510399711944 Se
   0.5045586702557985    0.3214974515506258    0.2443510399711945 Se
   0.7677165649926408    0.2162342936558889    0.2443510399711945 Se
   0.0835060386768511    0.6899185041822048    0.2443510399711944 Se
   0.3466639334136934    0.5846553462874677    0.2443510399711945 Se
   0.6098218281505353    0.4793921883927310    0.2443510399711945 Se
   0.8729797228873772    0.3741290304979941    0.2443510399711945 Se
   0.1887691965715882    0.8478132410243100    0.2443510399711945 Se
   0.4519270913084298    0.7425500831295733    0.2443510399711945 Se
   0.7150849860452722    0.6372869252348361    0.2443510399711945 Se
   0.5571902492031668    0.9004448199716786    0.2443510399711945 Se
   0.8203481439400089    0.7951816620769416    0.2443510399711945 Se
   0.0660000302701351    0.8295933671666550    0.3825808312104175 Se
   0.1712631881648719    0.9874881040087603    0.3825808312104175 Se
   0.4344210829017139    0.8822249461140235    0.3825808312104175 Se
   0.2765263460596086    0.1453828408508656    0.3825808312104175 Se
   0.5396842407964509    0.0401196829561288    0.3825808312104175 Se
   0.8028421355332928    0.9348565250613921    0.3825808312104175 Se
   0.1186316092175033    0.4085407355877078    0.3825808312104175 Se
   0.3817895039543455    0.3032775776929709    0.3825808312104175 Se
   0.6449473986911878    0.1980144197982342    0.3825808312104175 Se
   0.9081052934280296    0.0927512619034972    0.3825808312104175 Se
   0.2238947671122403    0.5664354724298130    0.3825808312104175 Se
   0.4870526618490825    0.4611723145350762    0.3825808312104175 Se
   0.7502105565859243    0.3559091566403394    0.3825808312104175 Se
   0.0133684513227663    0.2506459987456026    0.3825808312104175 Se
   0.3291579250069770    0.7243302092719182    0.3825808312104175 Se
   0.5923158197438187    0.6190670513771814    0.3825808312104175 Se
   0.8554737144806612    0.5138038934824445    0.3825808312104174 Se
   0.6975789776385557    0.7769617882192865    0.3825808312104174 Se
   0.9607368723753980    0.6716986303245498    0.3825808312104175 Se
   0.6916924529729618    0.5560222711847200    0.8313182077635203 Se
   0.1916924529729619    0.5560222711847199    0.8313182077635203 Se
   0.5250257863062953    0.3893556045180533    0.8313182077635203 Se
   0.0250257863062955    0.3893556045180533    0.8313182077635203 Se
   0.3583591196396286    0.2226889378513865    0.8313182077635203 Se
   0.6916924529729619    0.0560222711847199    0.8313182077635203 Se
   0.8583591196396289    0.2226889378513866    0.8313182077635203 Se
   0.1916924529729619    0.0560222711847199    0.8313182077635203 Se
   0.5250257863062953    0.8893556045180534    0.8313182077635203 Se
   0.0250257863062953    0.8893556045180533    0.8313182077635203 Se
   0.3583591196396287    0.7226889378513867    0.8313182077635203 Se
   0.8583591196396285    0.7226889378513865    0.8313182077635203 Se
   0.0273435319592625    0.5564965313908040    0.7495056388254160 Se
   0.5273435319592626    0.5564965313908041    0.7495056388254160 Se
   0.8606768652925956    0.3898298647241371    0.7495056388254160 Se
   0.3606768652925959    0.3898298647241372    0.7495056388254160 Se
   0.6940101986259293    0.2231631980574707    0.7495056388254160 Se
   0.0273435319592625    0.0564965313908041    0.7495056388254160 Se
   0.1940101986259293    0.2231631980574707    0.7495056388254160 Se
   0.5273435319592626    0.0564965313908040    0.7495056388254160 Se
   0.8606768652925957    0.8898298647241375    0.7495056388254160 Se
   0.3606768652925960    0.8898298647241373    0.7495056388254160 Se
   0.6940101986259293    0.7231631980574708    0.7495056388254160 Se
   0.1940101986259292    0.7231631980574708    0.7495056388254160 Se
   0.8596627024314607    0.5572027023257353    0.6677845033197066 Se
   0.3596627024314606    0.5572027023257352    0.6677845033197066 Se
   0.6929960357647942    0.3905360356590685    0.6677845033197066 Se
   0.1929960357647942    0.3905360356590685    0.6677845033197066 Se
   0.5263293690981276    0.2238693689924019    0.6677845033197066 Se
   0.8596627024314606    0.0572027023257351    0.6677845033197066 Se
   0.0263293690981274    0.2238693689924019    0.6677845033197066 Se
   0.3596627024314607    0.0572027023257352    0.6677845033197066 Se
   0.6929960357647941    0.8905360356590686    0.6677845033197066 Se
   0.1929960357647940    0.8905360356590685    0.6677845033197066 Se
   0.5263293690981274    0.7238693689924020    0.6677845033197066 Se
   0.0263293690981274    0.7238693689924020    0.6677845033197066 Se
   0.0244858746418687    0.5630488509770166    0.6055580957863086 Se
   0.5244858746418689    0.5630488509770165    0.6055580957863086 Se
   0.8578192079752021    0.3963821843103497    0.6055580957863086 Se
   0.3578192079752023    0.3963821843103498    0.6055580957863086 Se
   0.6911525413085354    0.2297155176436831    0.6055580957863086 Se
   0.0244858746418688    0.0630488509770165    0.6055580957863086 Se
   0.1911525413085355    0.2297155176436832    0.6055580957863086 Se
   0.5244858746418688    0.0630488509770165    0.6055580957863086 Se
   0.8578192079752022    0.8963821843103500    0.6055580957863086 Se
   0.3578192079752021    0.8963821843103498    0.6055580957863086 Se
   0.6911525413085355    0.7297155176436831    0.6055580957863086 Se
   0.1911525413085354    0.7297155176436831    0.6055580957863086 Se
   0.8562446988148671    0.5637409801770965    0.5241890951556732 Se
   0.3562446988148670    0.5637409801770963    0.5241890951556732 Se
   0.6895780321482002    0.3970743135104297    0.5241890951556732 Se
   0.1895780321482004    0.3970743135104295    0.5241890951556732 Se
   0.5229113654815336    0.2304076468437630    0.5241890951556732 Se
   0.8562446988148671    0.0637409801770962    0.5241890951556732 Se
   0.0229113654815337    0.2304076468437630    0.5241890951556732 Se
   0.3562446988148669    0.0637409801770963    0.5241890951556732 Se
   0.6895780321482003    0.8970743135104295    0.5241890951556732 Se
   0.1895780321482004    0.8970743135104297    0.5241890951556732 Se
   0.5229113654815338    0.7304076468437629    0.5241890951556732 Se
   0.0229113654815337    0.7304076468437628    0.5241890951556732 Se
   0.6889331894907447    0.5632770921621481    0.4427015086099986 Se
   0.1889331894907446    0.5632770921621479    0.4427015086099986 Se
   0.5222665228240778    0.3966104254954814    0.4427015086099986 Se
   0.0222665228240781    0.3966104254954813    0.4427015086099986 Se
   0.3555998561574112    0.2299437588288146    0.4427015086099986 Se
   0.6889331894907447    0.0632770921621481    0.4427015086099986 Se
   0.8555998561574115    0.2299437588288145    0.4427015086099986 Se
   0.1889331894907446    0.0632770921621480    0.4427015086099986 Se
   0.5222665228240779    0.8966104254954814    0.4427015086099986 Se
   0.0222665228240779    0.8966104254954813    0.4427015086099986 Se
   0.3555998561574112    0.7299437588288146    0.4427015086099986 Se
   0.8555998561574115    0.7299437588288146    0.4427015086099986 Se
