Nb48 Bi64 Se192
1.0
  15.0973550213515413    0.0000000000000000    0.0000000000000009
   7.1513786940835118   16.5154016580098535    0.0000000000000011
   0.0000000000000000    0.0000000000000000   44.4624158930297497
Nb Bi Se
48 64 192
direct
   0.1308573275133586    0.5259931269049467    0.3447480443666842 Nb
   0.2558573275133587    0.6509931269049467    0.3447480443666842 Nb
   0.3808573275133586    0.7759931269049468    0.3447480443666842 Nb
   0.1308573275133588    0.1926597935716135    0.3447480443666842 Nb
   0.2558573275133589    0.3176597935716136    0.3447480443666842 Nb
   0.3808573275133588    0.4426597935716133    0.3447480443666842 Nb
   0.5058573275133589    0.5676597935716132    0.3447480443666842 Nb
   0.6308573275133588    0.6926597935716132    0.3447480443666842 Nb
   0.7558573275133588    0.8176597935716133    0.3447480443666842 Nb
   0.1308573275133588    0.8593264602382802    0.3447480443666842 Nb
   0.2558573275133588    0.9843264602382802    0.3447480443666842 Nb
   0.3808573275133589    0.1093264602382801    0.3447480443666842 Nb
   0.5058573275133590    0.2343264602382801    0.3447480443666842 Nb
   0.6308573275133589    0.3593264602382801    0.3447480443666842 Nb
   0.7558573275133587    0.4843264602382801    0.3447480443666842 Nb
   0.8808573275133588    0.6093264602382802    0.3447480443666842 Nb
   0.0058573275133587    0.7343264602382802    0.3447480443666842 Nb
   0.5058573275133588    0.9009931269049469    0.3447480443666842 Nb
   0.6308573275133589    0.0259931269049468    0.3447480443666842 Nb
   0.7558573275133588    0.1509931269049468    0.3447480443666842 Nb
   0.8808573275133589    0.2759931269049468    0.3447480443666842 Nb
   0.0058573275133585    0.4009931269049468    0.3447480443666842 Nb
   0.8808573275133592    0.9426597935716136    0.3447480443666842 Nb
   0.0058573275133588    0.0676597935716135    0.3447480443666842 Nb
   0.1315026514898041    0.5255542670993555    0.2065134900768983 Nb
   0.2565026514898040    0.6505542670993556    0.2065134900768983 Nb
   0.3815026514898038    0.7755542670993558    0.2065134900768983 Nb
   0.1315026514898039    0.1922209337660225    0.2065134900768983 Nb
   0.2565026514898040    0.3172209337660225    0.2065134900768983 Nb
   0.3815026514898040    0.4422209337660223    0.2065134900768983 Nb
   0.5065026514898041    0.5672209337660222    0.2065134900768983 Nb
   0.6315026514898041    0.6922209337660222    0.2065134900768983 Nb
   0.7565026514898036    0.8172209337660222    0.2065134900768983 Nb
   0.1315026514898039    0.8588876004326891    0.2065134900768983 Nb
   0.2565026514898042    0.9838876004326891    0.2065134900768983 Nb
   0.3815026514898041    0.1088876004326891    0.2065134900768983 Nb
   0.5065026514898039    0.2338876004326891    0.2065134900768983 Nb
   0.6315026514898041    0.3588876004326891    0.2065134900768983 Nb
   0.7565026514898040    0.4838876004326891    0.2065134900768983 Nb
   0.8815026514898042    0.6088876004326891    0.2065134900768983 Nb
   0.0065026514898039    0.7338876004326891    0.2065134900768983 Nb
   0.5065026514898043    0.9005542670993557    0.2065134900768983 Nb
   0.6315026514898043    0.0255542670993558    0.2065134900768983 Nb
   0.7565026514898041    0.1505542670993557    0.2065134900768983 Nb
   0.8815026514898039    0.2755542670993557    0.2065134900768983 Nb
   0.0065026514898040    0.4005542670993558    0.2065134900768983 Nb
   0.8815026514898043    0.9422209337660226    0.2065134900768983 Nb
   0.0065026514898040    0.0672209337660224    0.2065134900768983 Nb
   0.7453303086706025    0.5887299184071790    0.7944001694220465 Bi
   0.6203303086706025    0.8387299184071790    0.7944001694220465 Bi
   0.6828303086706022    0.2137299184071789    0.7944001694220465 Bi
   0.5578303086706025    0.4637299184071791    0.7944001694220465 Bi
   0.4328303086706022    0.7137299184071789    0.7944001694220465 Bi
   0.4953303086706020    0.0887299184071790    0.7944001694220465 Bi
   0.3703303086706022    0.3387299184071791    0.7944001694220465 Bi
   0.2453303086706021    0.5887299184071789    0.7944001694220465 Bi
   0.1203303086706020    0.8387299184071790    0.7944001694220465 Bi
   0.3078303086706021    0.9637299184071791    0.7944001694220465 Bi
   0.1828303086706020    0.2137299184071791    0.7944001694220465 Bi
   0.0578303086706022    0.4637299184071792    0.7944001694220465 Bi
   0.9328303086706022    0.7137299184071790    0.7944001694220465 Bi
   0.9953303086706020    0.0887299184071792    0.7944001694220465 Bi
   0.8703303086706020    0.3387299184071791    0.7944001694220465 Bi
   0.8078303086706021    0.9637299184071791    0.7944001694220465 Bi
   0.7265955785287866    0.4643044303208381    0.7047369577364245 Bi
   0.6015955785287866    0.7143044303208380    0.7047369577364245 Bi
   0.6640955785287866    0.0893044303208382    0.7047369577364245 Bi
   0.5390955785287866    0.3393044303208383    0.7047369577364245 Bi
   0.4140955785287866    0.5893044303208382    0.7047369577364245 Bi
   0.4765955785287865    0.9643044303208382    0.7047369577364245 Bi
   0.3515955785287865    0.2143044303208382    0.7047369577364245 Bi
   0.2265955785287865    0.4643044303208383    0.7047369577364245 Bi
   0.1015955785287865    0.7143044303208382    0.7047369577364245 Bi
   0.2890955785287866    0.8393044303208382    0.7047369577364245 Bi
   0.1640955785287865    0.0893044303208385    0.7047369577364245 Bi
   0.0390955785287864    0.3393044303208383    0.7047369577364245 Bi
   0.9140955785287865    0.5893044303208383    0.7047369577364245 Bi
   0.9765955785287863    0.9643044303208385    0.7047369577364245 Bi
   0.8515955785287866    0.2143044303208384    0.7047369577364245 Bi
   0.7890955785287863    0.8393044303208382    0.7047369577364245 Bi
   0.7313651908876656    0.4614339838096970    0.5688586317166681 Bi
   0.6063651908876655    0.7114339838096971    0.5688586317166681 Bi
   0.6688651908876654    0.0864339838096968    0.5688586317166681 Bi
   0.5438651908876654    0.3364339838096970    0.5688586317166681 Bi
   0.4188651908876650    0.5864339838096969    0.5688586317166681 Bi
   0.4813651908876652    0.9614339838096969    0.5688586317166681 Bi
   0.3563651908876652    0.2114339838096970    0.5688586317166681 Bi
   0.2313651908876652    0.4614339838096969    0.5688586317166681 Bi
   0.1063651908876651    0.7114339838096970    0.5688586317166681 Bi
   0.2938651908876655    0.8364339838096971    0.5688586317166681 Bi
   0.1688651908876651    0.0864339838096971    0.5688586317166681 Bi
   0.0438651908876651    0.3364339838096971    0.5688586317166681 Bi
   0.9188651908876651    0.5864339838096970    0.5688586317166681 Bi
   0.9813651908876651    0.9614339838096972    0.5688586317166681 Bi
   0.8563651908876653    0.2114339838096971    0.5688586317166681 Bi
   0.7938651908876653    0.8364339838096970    0.5688586317166682 Bi
   0.7733412522109471    0.7124994816830447    0.4795310425214355 Bi
   0.6483412522109470    0.9624994816830446    0.4795310425214356 Bi
   0.7108412522109470    0.3374994816830447    0.4795310425214356 Bi
   0.5858412522109471    0.5874994816830447    0.4795310425214356 Bi
   0.4608412522109469    0.8374994816830447    0.4795310425214355 Bi
   0.5233412522109469    0.2124994816830447    0.4795310425214356 Bi
   0.3983412522109470    0.4624994816830447    0.4795310425214356 Bi
   0.2733412522109468    0.7124994816830449    0.4795310425214356 Bi
   0.1483412522109468    0.9624994816830447    0.4795310425214356 Bi
   0.3358412522109468    0.0874994816830448    0.4795310425214356 Bi
   0.2108412522109470    0.3374994816830449    0.4795310425214356 Bi
   0.0858412522109467    0.5874994816830449    0.4795310425214356 Bi
   0.9608412522109466    0.8374994816830450    0.4795310425214356 Bi
   0.0233412522109467    0.2124994816830449    0.4795310425214356 Bi
   0.8983412522109467    0.4624994816830448    0.4795310425214355 Bi
   0.8358412522109469    0.0874994816830448    0.4795310425214356 Bi
   0.0065088219853134    0.5116323665215329    0.1686817922364797 Se
   0.1315088219853135    0.6366323665215327    0.1686817922364797 Se
   0.2565088219853136    0.7616323665215325    0.1686817922364797 Se
   0.0065088219853135    0.1782990331881993    0.1686817922364797 Se
   0.1315088219853135    0.3032990331881993    0.1686817922364797 Se
   0.2565088219853136    0.4282990331881993    0.1686817922364797 Se
   0.3815088219853136    0.5532990331881993    0.1686817922364797 Se
   0.5065088219853136    0.6782990331881992    0.1686817922364797 Se
   0.6315088219853137    0.8032990331881992    0.1686817922364797 Se
   0.0065088219853136    0.8449656998548659    0.1686817922364797 Se
   0.1315088219853135    0.9699656998548660    0.1686817922364797 Se
   0.2565088219853136    0.0949656998548660    0.1686817922364797 Se
   0.3815088219853136    0.2199656998548659    0.1686817922364797 Se
   0.5065088219853136    0.3449656998548660    0.1686817922364797 Se
   0.6315088219853134    0.4699656998548660    0.1686817922364797 Se
   0.7565088219853136    0.5949656998548661    0.1686817922364797 Se
   0.8815088219853136    0.7199656998548658    0.1686817922364797 Se
   0.3815088219853136    0.8866323665215328    0.1686817922364797 Se
   0.5065088219853136    0.0116323665215327    0.1686817922364797 Se
   0.6315088219853134    0.1366323665215327    0.1686817922364797 Se
   0.7565088219853136    0.2616323665215327    0.1686817922364797 Se
   0.8815088219853137    0.3866323665215327    0.1686817922364797 Se
   0.7565088219853137    0.9282990331881994    0.1686817922364797 Se
   0.8815088219853134    0.0532990331881994    0.1686817922364797 Se
   0.0058548646992170    0.6232002364466549    0.3069115334886653 Se
   0.1308548646992169    0.7482002364466548    0.3069115334886654 Se
   0.2558548646992171    0.8732002364466546    0.3069115334886654 Se
   0.0058548646992171    0.2898669031133216    0.3069115334886653 Se
   0.1308548646992172    0.4148669031133213    0.3069115334886653 Se
   0.2558548646992171    0.5398669031133216    0.3069115334886654 Se
   0.3808548646992173    0.6648669031133213    0.3069115334886654 Se
   0.5058548646992169    0.7898669031133213    0.3069115334886653 Se
   0.6308548646992174    0.9148669031133214    0.3069115334886653 Se
   0.0058548646992171    0.9565335697799882    0.3069115334886653 Se
   0.1308548646992173    0.0815335697799881    0.3069115334886653 Se
   0.2558548646992171    0.2065335697799882    0.3069115334886653 Se
   0.3808548646992171    0.3315335697799882    0.3069115334886653 Se
   0.5058548646992174    0.4565335697799880    0.3069115334886654 Se
   0.6308548646992168    0.5815335697799883    0.3069115334886654 Se
   0.7558548646992174    0.7065335697799884    0.3069115334886653 Se
   0.8808548646992173    0.8315335697799880    0.3069115334886653 Se
   0.3808548646992172    0.9982002364466548    0.3069115334886653 Se
   0.5058548646992171    0.1232002364466548    0.3069115334886653 Se
   0.6308548646992171    0.2482002364466548    0.3069115334886654 Se
   0.7558548646992169    0.3732002364466548    0.3069115334886654 Se
   0.8808548646992174    0.4982002364466548    0.3069115334886653 Se
   0.7558548646992175    0.0398669031133215    0.3069115334886654 Se
   0.8808548646992170    0.1648669031133215    0.3069115334886654 Se
   0.0064554438976426    0.5116936027440033    0.2443510399711945 Se
   0.1314554438976425    0.6366936027440036    0.2443510399711945 Se
   0.2564554438976425    0.7616936027440033    0.2443510399711945 Se
   0.0064554438976426    0.1783602694106700    0.2443510399711945 Se
   0.1314554438976425    0.3033602694106701    0.2443510399711945 Se
   0.2564554438976426    0.4283602694106700    0.2443510399711944 Se
   0.3814554438976426    0.5533602694106700    0.2443510399711945 Se
   0.5064554438976425    0.6783602694106700    0.2443510399711945 Se
   0.6314554438976425    0.8033602694106701    0.2443510399711945 Se
   0.0064554438976427    0.8450269360773368    0.2443510399711945 Se
   0.1314554438976426    0.9700269360773368    0.2443510399711945 Se
   0.2564554438976425    0.0950269360773368    0.2443510399711945 Se
   0.3814554438976427    0.2200269360773367    0.2443510399711945 Se
   0.5064554438976427    0.3450269360773367    0.2443510399711945 Se
   0.6314554438976427    0.4700269360773369    0.2443510399711945 Se
   0.7564554438976426    0.5950269360773367    0.2443510399711945 Se
   0.8814554438976429    0.7200269360773368    0.2443510399711945 Se
   0.3814554438976427    0.8866936027440034    0.2443510399711945 Se
   0.5064554438976429    0.0116936027440034    0.2443510399711945 Se
   0.6314554438976426    0.1366936027440035    0.2443510399711945 Se
   0.7564554438976430    0.2616936027440034    0.2443510399711945 Se
   0.8814554438976425    0.3866936027440035    0.2443510399711945 Se
   0.7564554438976427    0.9283602694106702    0.2443510399711944 Se
   0.8814554438976431    0.0533602694106701    0.2443510399711945 Se
   0.0058125495262161    0.6232632756696371    0.3825808312104175 Se
   0.1308125495262163    0.7482632756696374    0.3825808312104175 Se
   0.2558125495262164    0.8732632756696372    0.3825808312104175 Se
   0.0058125495262161    0.2899299423363040    0.3825808312104175 Se
   0.1308125495262163    0.4149299423363039    0.3825808312104175 Se
   0.2558125495262163    0.5399299423363038    0.3825808312104175 Se
   0.3808125495262165    0.6649299423363039    0.3825808312104175 Se
   0.5058125495262162    0.7899299423363040    0.3825808312104174 Se
   0.6308125495262163    0.9149299423363039    0.3825808312104175 Se
   0.0058125495262163    0.9565966090029706    0.3825808312104175 Se
   0.1308125495262163    0.0815966090029706    0.3825808312104175 Se
   0.2558125495262163    0.2065966090029705    0.3825808312104175 Se
   0.3808125495262162    0.3315966090029705    0.3825808312104175 Se
   0.5058125495262166    0.4565966090029704    0.3825808312104175 Se
   0.6308125495262162    0.5815966090029708    0.3825808312104175 Se
   0.7558125495262162    0.7065966090029706    0.3825808312104174 Se
   0.8808125495262166    0.8315966090029706    0.3825808312104175 Se
   0.3808125495262165    0.9982632756696372    0.3825808312104175 Se
   0.5058125495262165    0.1232632756696373    0.3825808312104175 Se
   0.6308125495262165    0.2482632756696373    0.3825808312104175 Se
   0.7558125495262161    0.3732632756696372    0.3825808312104175 Se
   0.8808125495262163    0.4982632756696372    0.3825808312104174 Se
   0.7558125495262166    0.0399299423363040    0.3825808312104175 Se
   0.8808125495262163    0.1649299423363040    0.3825808312104175 Se
   0.7244289514490720    0.4630882209108479    0.8313182077635204 Se
   0.5994289514490718    0.7130882209108481    0.8313182077635204 Se
   0.6619289514490718    0.0880882209108482    0.8313182077635204 Se
   0.5369289514490719    0.3380882209108483    0.8313182077635204 Se
   0.4119289514490717    0.5880882209108480    0.8313182077635204 Se
   0.4744289514490715    0.9630882209108482    0.8313182077635204 Se
   0.3494289514490717    0.2130882209108481    0.8313182077635204 Se
   0.2244289514490715    0.4630882209108483    0.8313182077635204 Se
   0.0994289514490716    0.7130882209108482    0.8313182077635204 Se
   0.2869289514490716    0.8380882209108483    0.8313182077635204 Se
   0.1619289514490717    0.0880882209108484    0.8313182077635204 Se
   0.0369289514490716    0.3380882209108483    0.8313182077635204 Se
   0.9119289514490719    0.5880882209108482    0.8313182077635204 Se
   0.9744289514490716    0.9630882209108483    0.8313182077635204 Se
   0.8494289514490717    0.2130882209108482    0.8313182077635204 Se
   0.7869289514490718    0.8380882209108482    0.8313182077635204 Se
   0.7668595965284437    0.7148265301505736    0.7495056388254160 Se
   0.6418595965284434    0.9648265301505737    0.7495056388254160 Se
   0.7043595965284436    0.3398265301505736    0.7495056388254160 Se
   0.5793595965284437    0.5898265301505736    0.7495056388254160 Se
   0.4543595965284434    0.8398265301505738    0.7495056388254160 Se
   0.5168595965284433    0.2148265301505737    0.7495056388254160 Se
   0.3918595965284434    0.4648265301505737    0.7495056388254160 Se
   0.2668595965284433    0.7148265301505736    0.7495056388254160 Se
   0.1418595965284432    0.9648265301505737    0.7495056388254160 Se
   0.3293595965284434    0.0898265301505738    0.7495056388254160 Se
   0.2043595965284433    0.3398265301505738    0.7495056388254160 Se
   0.0793595965284434    0.5898265301505737    0.7495056388254160 Se
   0.9543595965284433    0.8398265301505738    0.7495056388254160 Se
   0.0168595965284433    0.2148265301505739    0.7495056388254160 Se
   0.8918595965284435    0.4648265301505737    0.7495056388254160 Se
   0.8293595965284435    0.0898265301505738    0.7495056388254160 Se
   0.7466056637723997    0.5890659080047222    0.6677845033197066 Se
   0.6216056637723997    0.8390659080047224    0.6677845033197066 Se
   0.6841056637723995    0.2140659080047222    0.6677845033197066 Se
   0.5591056637723997    0.4640659080047223    0.6677845033197066 Se
   0.4341056637723993    0.7140659080047221    0.6677845033197066 Se
   0.4966056637723995    0.0890659080047222    0.6677845033197066 Se
   0.3716056637723993    0.3390659080047224    0.6677845033197066 Se
   0.2466056637723992    0.5890659080047221    0.6677845033197066 Se
   0.1216056637723991    0.8390659080047225    0.6677845033197066 Se
   0.3091056637723993    0.9640659080047224    0.6677845033197066 Se
   0.1841056637723993    0.2140659080047225    0.6677845033197066 Se
   0.0591056637723992    0.4640659080047224    0.6677845033197066 Se
   0.9341056637723992    0.7140659080047224    0.6677845033197067 Se
   0.9966056637723992    0.0890659080047225    0.6677845033197066 Se
   0.8716056637723993    0.3390659080047223    0.6677845033197066 Se
   0.8091056637723993    0.9640659080047225    0.6677845033197066 Se
   0.7730547089499820    0.7126832871625280    0.6055580957863087 Se
   0.6480547089499816    0.9626832871625284    0.6055580957863087 Se
   0.7105547089499819    0.3376832871625283    0.6055580957863087 Se
   0.5855547089499817    0.5876832871625285    0.6055580957863087 Se
   0.4605547089499817    0.8376832871625280    0.6055580957863087 Se
   0.5230547089499816    0.2126832871625283    0.6055580957863087 Se
   0.3980547089499817    0.4626832871625284    0.6055580957863087 Se
   0.2730547089499817    0.7126832871625285    0.6055580957863087 Se
   0.1480547089499815    0.9626832871625285    0.6055580957863087 Se
   0.3355547089499816    0.0876832871625284    0.6055580957863087 Se
   0.2105547089499816    0.3376832871625285    0.6055580957863087 Se
   0.0855547089499817    0.5876832871625286    0.6055580957863087 Se
   0.9605547089499816    0.8376832871625285    0.6055580957863087 Se
   0.0230547089499816    0.2126832871625285    0.6055580957863087 Se
   0.8980547089499817    0.4626832871625284    0.6055580957863087 Se
   0.8355547089499815    0.0876832871625283    0.6055580957863087 Se
   0.7527166911716866    0.5865024052922769    0.5241890951556734 Se
   0.6277166911716867    0.8365024052922768    0.5241890951556734 Se
   0.6902166911716865    0.2115024052922769    0.5241890951556734 Se
   0.5652166911716865    0.4615024052922771    0.5241890951556734 Se
   0.4402166911716863    0.7115024052922770    0.5241890951556734 Se
   0.5027166911716862    0.0865024052922770    0.5241890951556734 Se
   0.3777166911716864    0.3365024052922770    0.5241890951556734 Se
   0.2527166911716863    0.5865024052922770    0.5241890951556734 Se
   0.1277166911716863    0.8365024052922770    0.5241890951556734 Se
   0.3152166911716861    0.9615024052922770    0.5241890951556734 Se
   0.1902166911716861    0.2115024052922772    0.5241890951556734 Se
   0.0652166911716861    0.4615024052922771    0.5241890951556734 Se
   0.9402166911716863    0.7115024052922769    0.5241890951556734 Se
   0.0027166911716861    0.0865024052922772    0.5241890951556734 Se
   0.8777166911716862    0.3365024052922771    0.5241890951556734 Se
   0.8152166911716862    0.9615024052922770    0.5241890951556734 Se
   0.7313388644912228    0.4610187732991852    0.4427015086099986 Se
   0.6063388644912229    0.7110187732991849    0.4427015086099986 Se
   0.6688388644912225    0.0860187732991851    0.4427015086099986 Se
   0.5438388644912229    0.3360187732991854    0.4427015086099986 Se
   0.4188388644912226    0.5860187732991849    0.4427015086099986 Se
   0.4813388644912226    0.9610187732991852    0.4427015086099986 Se
   0.3563388644912228    0.2110187732991853    0.4427015086099986 Se
   0.2313388644912227    0.4610187732991852    0.4427015086099986 Se
   0.1063388644912226    0.7110187732991852    0.4427015086099986 Se
   0.2938388644912226    0.8360187732991854    0.4427015086099986 Se
   0.1688388644912226    0.0860187732991854    0.4427015086099986 Se
   0.0438388644912226    0.3360187732991854    0.4427015086099986 Se
   0.9188388644912228    0.5860187732991851    0.4427015086099986 Se
   0.9813388644912224    0.9610187732991854    0.4427015086099986 Se
   0.8563388644912228    0.2110187732991853    0.4427015086099986 Se
   0.7938388644912224    0.8360187732991854    0.4427015086099987 Se
