Nb64 Bi88 Se260
1.0
   6.9271415635605562    0.0000000000000000    0.0000000000000004
   3.4635707791200931   47.9926445587718433    0.0000000000000029
   0.0000000000000000    0.0000000000000000   44.4624158930297497
Nb Bi Se
64 88 260
direct
   0.3959172306399861    0.8639884869940748    0.3447480443666843 Nb
   0.8959172306399852    0.8639884869940748    0.3447480443666843 Nb
   0.1771672306399852    0.8014884869940747    0.3447480443666843 Nb
   0.6771672306399857    0.8014884869940747    0.3447480443666843 Nb
   0.4584172306399849    0.7389884869940748    0.3447480443666843 Nb
   0.9584172306399843    0.7389884869940748    0.3447480443666843 Nb
   0.2396672306399852    0.6764884869940748    0.3447480443666843 Nb
   0.7396672306399853    0.6764884869940748    0.3447480443666843 Nb
   0.5209172306399854    0.6139884869940748    0.3447480443666843 Nb
   0.0209172306399861    0.6139884869940748    0.3447480443666843 Nb
   0.3021672306399854    0.5514884869940748    0.3447480443666843 Nb
   0.8021672306399855    0.5514884869940748    0.3447480443666843 Nb
   0.5834172306399856    0.4889884869940749    0.3447480443666843 Nb
   0.0834172306399852    0.4889884869940748    0.3447480443666843 Nb
   0.3646672306399859    0.4264884869940748    0.3447480443666843 Nb
   0.8646672306399863    0.4264884869940748    0.3447480443666843 Nb
   0.1459172306399861    0.3639884869940748    0.3447480443666843 Nb
   0.6459172306399860    0.3639884869940748    0.3447480443666843 Nb
   0.4271672306399863    0.3014884869940748    0.3447480443666843 Nb
   0.9271672306399861    0.3014884869940748    0.3447480443666843 Nb
   0.2084172306399863    0.2389884869940748    0.3447480443666843 Nb
   0.7084172306399863    0.2389884869940748    0.3447480443666843 Nb
   0.4896672306399862    0.1764884869940748    0.3447480443666843 Nb
   0.9896672306399862    0.1764884869940748    0.3447480443666843 Nb
   0.2709172306399863    0.1139884869940749    0.3447480443666843 Nb
   0.7709172306399863    0.1139884869940749    0.3447480443666843 Nb
   0.5521672306399866    0.0514884869940748    0.3447480443666843 Nb
   0.0521672306399863    0.0514884869940748    0.3447480443666843 Nb
   0.3334172306399866    0.9889884869940748    0.3447480443666843 Nb
   0.8334172306399864    0.9889884869940748    0.3447480443666843 Nb
   0.1146672306399856    0.9264884869940748    0.3447480443666843 Nb
   0.6146672306399857    0.9264884869940748    0.3447480443666843 Nb
   0.3958769904733518    0.8637852025349431    0.2065134900768984 Nb
   0.8958769904733517    0.8637852025349431    0.2065134900768984 Nb
   0.1771269904733517    0.8012852025349430    0.2065134900768984 Nb
   0.6771269904733517    0.8012852025349430    0.2065134900768984 Nb
   0.4583769904733522    0.7387852025349431    0.2065134900768984 Nb
   0.9583769904733521    0.7387852025349431    0.2065134900768984 Nb
   0.2396269904733521    0.6762852025349431    0.2065134900768984 Nb
   0.7396269904733528    0.6762852025349431    0.2065134900768984 Nb
   0.5208769904733523    0.6137852025349431    0.2065134900768984 Nb
   0.0208769904733526    0.6137852025349431    0.2065134900768984 Nb
   0.3021269904733525    0.5512852025349431    0.2065134900768984 Nb
   0.8021269904733523    0.5512852025349431    0.2065134900768984 Nb
   0.5833769904733522    0.4887852025349431    0.2065134900768984 Nb
   0.0833769904733524    0.4887852025349431    0.2065134900768984 Nb
   0.3646269904733526    0.4262852025349430    0.2065134900768984 Nb
   0.8646269904733532    0.4262852025349431    0.2065134900768984 Nb
   0.1458769904733531    0.3637852025349430    0.2065134900768984 Nb
   0.6458769904733528    0.3637852025349431    0.2065134900768984 Nb
   0.4271269904733531    0.3012852025349430    0.2065134900768984 Nb
   0.9271269904733528    0.3012852025349431    0.2065134900768984 Nb
   0.2083769904733530    0.2387852025349430    0.2065134900768984 Nb
   0.7083769904733528    0.2387852025349430    0.2065134900768984 Nb
   0.4896269904733529    0.1762852025349431    0.2065134900768984 Nb
   0.9896269904733527    0.1762852025349430    0.2065134900768984 Nb
   0.2708769904733529    0.1137852025349430    0.2065134900768984 Nb
   0.7708769904733529    0.1137852025349431    0.2065134900768983 Nb
   0.5521269904733532    0.0512852025349430    0.2065134900768984 Nb
   0.0521269904733530    0.0512852025349430    0.2065134900768984 Nb
   0.3333769904733532    0.9887852025349431    0.2065134900768984 Nb
   0.8333769904733530    0.9887852025349431    0.2065134900768984 Nb
   0.1146269904733531    0.9262852025349427    0.2065134900768984 Nb
   0.6146269904733532    0.9262852025349430    0.2065134900768984 Nb
   0.0265472938530927    0.9911751273006926    0.7944001694220465 Bi
   0.0265472938530926    0.0820842182097835    0.7944001694220465 Bi
   0.0265472938530925    0.1729933091188744    0.7944001694220465 Bi
   0.0265472938530925    0.2639024000279653    0.7944001694220465 Bi
   0.0265472938530925    0.3548114909370563    0.7944001694220465 Bi
   0.0265472938530926    0.4457205818461472    0.7944001694220465 Bi
   0.0265472938530927    0.5366296727552380    0.7944001694220465 Bi
   0.0265472938530922    0.6275387636643289    0.7944001694220465 Bi
   0.0265472938530931    0.7184478545734199    0.7944001694220465 Bi
   0.0265472938530920    0.8093569454825109    0.7944001694220465 Bi
   0.0265472938530928    0.9002660363916017    0.7944001694220464 Bi
   0.5265472938530927    0.0366296727552381    0.7944001694220465 Bi
   0.5265472938530927    0.1275387636643290    0.7944001694220465 Bi
   0.5265472938530928    0.2184478545734199    0.7944001694220465 Bi
   0.5265472938530927    0.3093569454825107    0.7944001694220465 Bi
   0.5265472938530924    0.4002660363916017    0.7944001694220465 Bi
   0.5265472938530930    0.4911751273006925    0.7944001694220465 Bi
   0.5265472938530927    0.5820842182097836    0.7944001694220465 Bi
   0.5265472938530924    0.6729933091188746    0.7944001694220465 Bi
   0.5265472938530926    0.7639024000279653    0.7944001694220464 Bi
   0.5265472938530933    0.8548114909370566    0.7944001694220464 Bi
   0.5265472938530915    0.9457205818461473    0.7944001694220464 Bi
   0.1884422422230649    0.9459294952692958    0.7047369577364244 Bi
   0.1884422422230647    0.0368385861783869    0.7047369577364245 Bi
   0.1884422422230647    0.1277476770874778    0.7047369577364245 Bi
   0.1884422422230647    0.2186567679965687    0.7047369577364245 Bi
   0.1884422422230646    0.3095658589056596    0.7047369577364245 Bi
   0.1884422422230648    0.4004749498147505    0.7047369577364245 Bi
   0.1884422422230643    0.4913840407238415    0.7047369577364245 Bi
   0.1884422422230646    0.5822931316329323    0.7047369577364245 Bi
   0.1884422422230649    0.6732022225420233    0.7047369577364245 Bi
   0.1884422422230652    0.7641113134511143    0.7047369577364245 Bi
   0.1884422422230645    0.8550204043602050    0.7047369577364244 Bi
   0.6884422422230650    0.9913840407238415    0.7047369577364245 Bi
   0.6884422422230648    0.0822931316329324    0.7047369577364245 Bi
   0.6884422422230647    0.1732022225420233    0.7047369577364245 Bi
   0.6884422422230647    0.2641113134511142    0.7047369577364245 Bi
   0.6884422422230647    0.3550204043602051    0.7047369577364245 Bi
   0.6884422422230648    0.4459294952692959    0.7047369577364245 Bi
   0.6884422422230647    0.5368385861783869    0.7047369577364245 Bi
   0.6884422422230652    0.6277476770874779    0.7047369577364245 Bi
   0.6884422422230653    0.7186567679965690    0.7047369577364245 Bi
   0.6884422422230647    0.8095658589056597    0.7047369577364244 Bi
   0.6884422422230645    0.9004749498147505    0.7047369577364244 Bi
   0.1817734640164487    0.9448856965379718    0.5688586317166682 Bi
   0.1817734640164486    0.0357947874470628    0.5688586317166682 Bi
   0.1817734640164484    0.1267038783561537    0.5688586317166682 Bi
   0.1817734640164485    0.2176129692652446    0.5688586317166682 Bi
   0.1817734640164484    0.3085220601743355    0.5688586317166682 Bi
   0.1817734640164487    0.3994311510834264    0.5688586317166682 Bi
   0.1817734640164483    0.4903402419925174    0.5688586317166682 Bi
   0.1817734640164485    0.5812493329016083    0.5688586317166683 Bi
   0.1817734640164484    0.6721584238106992    0.5688586317166683 Bi
   0.1817734640164484    0.7630675147197902    0.5688586317166683 Bi
   0.1817734640164481    0.8539766056288810    0.5688586317166682 Bi
   0.6817734640164488    0.9903402419925174    0.5688586317166682 Bi
   0.6817734640164486    0.0812493329016082    0.5688586317166682 Bi
   0.6817734640164488    0.1721584238106993    0.5688586317166682 Bi
   0.6817734640164488    0.2630675147197900    0.5688586317166682 Bi
   0.6817734640164489    0.3539766056288809    0.5688586317166682 Bi
   0.6817734640164484    0.4448856965379718    0.5688586317166682 Bi
   0.6817734640164488    0.5357947874470628    0.5688586317166683 Bi
   0.6817734640164486    0.6267038783561537    0.5688586317166683 Bi
   0.6817734640164481    0.7176129692652446    0.5688586317166683 Bi
   0.6817734640164489    0.8085220601743354    0.5688586317166682 Bi
   0.6817734640164480    0.8994311510834264    0.5688586317166682 Bi
   0.8467558434965375    0.0361822412191893    0.4795310425214357 Bi
   0.8467558434965375    0.1270913321282801    0.4795310425214357 Bi
   0.8467558434965373    0.2180004230373710    0.4795310425214357 Bi
   0.8467558434965377    0.3089095139464620    0.4795310425214357 Bi
   0.8467558434965374    0.3998186048555529    0.4795310425214357 Bi
   0.8467558434965377    0.4907276957646438    0.4795310425214356 Bi
   0.8467558434965372    0.5816367866737346    0.4795310425214357 Bi
   0.8467558434965372    0.6725458775828256    0.4795310425214357 Bi
   0.8467558434965374    0.7634549684919164    0.4795310425214357 Bi
   0.8467558434965370    0.8543640594010076    0.4795310425214357 Bi
   0.8467558434965370    0.9452731503100983    0.4795310425214357 Bi
   0.3467558434965376    0.0816367866737347    0.4795310425214357 Bi
   0.3467558434965375    0.1725458775828256    0.4795310425214357 Bi
   0.3467558434965374    0.2634549684919165    0.4795310425214357 Bi
   0.3467558434965373    0.3543640594010075    0.4795310425214357 Bi
   0.3467558434965378    0.4452731503100985    0.4795310425214356 Bi
   0.3467558434965373    0.5361822412191892    0.4795310425214357 Bi
   0.3467558434965377    0.6270913321282803    0.4795310425214357 Bi
   0.3467558434965371    0.7180004230373713    0.4795310425214357 Bi
   0.3467558434965377    0.8089095139464620    0.4795310425214357 Bi
   0.3467558434965374    0.8998186048555530    0.4795310425214357 Bi
   0.3467558434965375    0.9907276957646438    0.4795310425214357 Bi
   0.6355274750694377    0.8846111892086932    0.1686817922364798 Se
   0.1355274750694369    0.8846111892086932    0.1686817922364798 Se
   0.4167774750694377    0.8221111892086932    0.1686817922364798 Se
   0.9167774750694377    0.8221111892086932    0.1686817922364797 Se
   0.6980274750694375    0.7596111892086932    0.1686817922364798 Se
   0.1980274750694369    0.7596111892086934    0.1686817922364797 Se
   0.4792774750694374    0.6971111892086931    0.1686817922364797 Se
   0.9792774750694377    0.6971111892086931    0.1686817922364797 Se
   0.7605274750694369    0.6346111892086932    0.1686817922364797 Se
   0.2605274750694374    0.6346111892086931    0.1686817922364797 Se
   0.5417774750694377    0.5721111892086932    0.1686817922364797 Se
   0.0417774750694374    0.5721111892086933    0.1686817922364798 Se
   0.8230274750694377    0.5096111892086931    0.1686817922364798 Se
   0.3230274750694376    0.5096111892086932    0.1686817922364798 Se
   0.6042774750694375    0.4471111892086932    0.1686817922364798 Se
   0.1042774750694382    0.4471111892086932    0.1686817922364798 Se
   0.3855274750694382    0.3846111892086932    0.1686817922364798 Se
   0.8855274750694373    0.3846111892086932    0.1686817922364798 Se
   0.6667774750694382    0.3221111892086932    0.1686817922364798 Se
   0.1667774750694376    0.3221111892086932    0.1686817922364798 Se
   0.4480274750694379    0.2596111892086932    0.1686817922364798 Se
   0.9480274750694379    0.2596111892086932    0.1686817922364798 Se
   0.7292774750694381    0.1971111892086932    0.1686817922364798 Se
   0.2292774750694380    0.1971111892086932    0.1686817922364797 Se
   0.5105274750694382    0.1346111892086931    0.1686817922364798 Se
   0.0105274750694381    0.1346111892086931    0.1686817922364798 Se
   0.7917774750694384    0.0721111892086932    0.1686817922364798 Se
   0.2917774750694382    0.0721111892086932    0.1686817922364798 Se
   0.5730274750694382    0.0096111892086932    0.1686817922364798 Se
   0.0730274750694382    0.0096111892086932    0.1686817922364798 Se
   0.3542774750694374    0.9471111892086933    0.1686817922364798 Se
   0.8542774750694377    0.9471111892086931    0.1686817922364798 Se
   0.3751233966875295    0.9056527818107967    0.3069115334886654 Se
   0.8751233966875289    0.9056527818107967    0.3069115334886654 Se
   0.1563733966875294    0.8431527818107968    0.3069115334886654 Se
   0.6563733966875285    0.8431527818107969    0.3069115334886654 Se
   0.4376233966875290    0.7806527818107967    0.3069115334886654 Se
   0.9376233966875290    0.7806527818107967    0.3069115334886654 Se
   0.2188733966875289    0.7181527818107968    0.3069115334886654 Se
   0.7188733966875293    0.7181527818107968    0.3069115334886654 Se
   0.5001233966875295    0.6556527818107967    0.3069115334886654 Se
   0.0001233966875294    0.6556527818107967    0.3069115334886654 Se
   0.2813733966875292    0.5931527818107966    0.3069115334886654 Se
   0.7813733966875296    0.5931527818107967    0.3069115334886654 Se
   0.5626233966875291    0.5306527818107966    0.3069115334886654 Se
   0.0626233966875294    0.5306527818107967    0.3069115334886654 Se
   0.3438733966875295    0.4681527818107967    0.3069115334886654 Se
   0.8438733966875300    0.4681527818107966    0.3069115334886654 Se
   0.1251233966875298    0.4056527818107966    0.3069115334886654 Se
   0.6251233966875300    0.4056527818107967    0.3069115334886654 Se
   0.4063733966875301    0.3431527818107967    0.3069115334886655 Se
   0.9063733966875300    0.3431527818107967    0.3069115334886655 Se
   0.1876233966875298    0.2806527818107967    0.3069115334886655 Se
   0.6876233966875299    0.2806527818107966    0.3069115334886655 Se
   0.4688733966875301    0.2181527818107966    0.3069115334886655 Se
   0.9688733966875300    0.2181527818107966    0.3069115334886654 Se
   0.2501233966875301    0.1556527818107966    0.3069115334886654 Se
   0.7501233966875303    0.1556527818107967    0.3069115334886655 Se
   0.5313733966875306    0.0931527818107966    0.3069115334886654 Se
   0.0313733966875302    0.0931527818107967    0.3069115334886654 Se
   0.3126233966875304    0.0306527818107966    0.3069115334886654 Se
   0.8126233966875303    0.0306527818107966    0.3069115334886654 Se
   0.0938733966875294    0.9681527818107968    0.3069115334886654 Se
   0.5938733966875300    0.9681527818107967    0.3069115334886654 Se
   0.6354723601307266    0.8846326793918449    0.2443510399711945 Se
   0.1354723601307270    0.8846326793918449    0.2443510399711945 Se
   0.4167223601307270    0.8221326793918446    0.2443510399711945 Se
   0.9167223601307262    0.8221326793918449    0.2443510399711945 Se
   0.6979723601307266    0.7596326793918446    0.2443510399711945 Se
   0.1979723601307271    0.7596326793918446    0.2443510399711945 Se
   0.4792223601307267    0.6971326793918449    0.2443510399711945 Se
   0.9792223601307266    0.6971326793918446    0.2443510399711945 Se
   0.7604723601307268    0.6346326793918449    0.2443510399711945 Se
   0.2604723601307261    0.6346326793918446    0.2443510399711945 Se
   0.5417223601307266    0.5721326793918448    0.2443510399711945 Se
   0.0417223601307262    0.5721326793918449    0.2443510399711945 Se
   0.8229723601307264    0.5096326793918446    0.2443510399711945 Se
   0.3229723601307265    0.5096326793918446    0.2443510399711945 Se
   0.6042223601307263    0.4471326793918448    0.2443510399711945 Se
   0.1042223601307270    0.4471326793918448    0.2443510399711945 Se
   0.3854723601307271    0.3846326793918448    0.2443510399711945 Se
   0.8854723601307271    0.3846326793918446    0.2443510399711945 Se
   0.6667223601307273    0.3221326793918446    0.2443510399711945 Se
   0.1667223601307268    0.3221326793918448    0.2443510399711945 Se
   0.4479723601307269    0.2596326793918447    0.2443510399711945 Se
   0.9479723601307267    0.2596326793918448    0.2443510399711945 Se
   0.7292223601307272    0.1971326793918447    0.2443510399711945 Se
   0.2292223601307268    0.1971326793918447    0.2443510399711945 Se
   0.5104723601307271    0.1346326793918447    0.2443510399711945 Se
   0.0104723601307272    0.1346326793918447    0.2443510399711945 Se
   0.7917223601307274    0.0721326793918447    0.2443510399711945 Se
   0.2917223601307272    0.0721326793918447    0.2443510399711945 Se
   0.5729723601307273    0.0096326793918447    0.2443510399711945 Se
   0.0729723601307273    0.0096326793918447    0.2443510399711945 Se
   0.3542223601307271    0.9471326793918448    0.2443510399711945 Se
   0.8542223601307275    0.9471326793918446    0.2443510399711945 Se
   0.3750457330139474    0.9056725357600437    0.3825808312104176 Se
   0.8750457330139465    0.9056725357600437    0.3825808312104176 Se
   0.1562957330139469    0.8431725357600435    0.3825808312104176 Se
   0.6562957330139475    0.8431725357600435    0.3825808312104176 Se
   0.4375457330139478    0.7806725357600436    0.3825808312104176 Se
   0.9375457330139474    0.7806725357600436    0.3825808312104176 Se
   0.2187957330139473    0.7181725357600436    0.3825808312104176 Se
   0.7187957330139478    0.7181725357600437    0.3825808312104176 Se
   0.5000457330139475    0.6556725357600437    0.3825808312104176 Se
   0.0000457330139479    0.6556725357600434    0.3825808312104176 Se
   0.2812957330139479    0.5931725357600435    0.3825808312104176 Se
   0.7812957330139467    0.5931725357600437    0.3825808312104176 Se
   0.5625457330139477    0.5306725357600436    0.3825808312104176 Se
   0.0625457330139472    0.5306725357600435    0.3825808312104175 Se
   0.3437957330139469    0.4681725357600435    0.3825808312104175 Se
   0.8437957330139474    0.4681725357600436    0.3825808312104175 Se
   0.1250457330139474    0.4056725357600435    0.3825808312104175 Se
   0.6250457330139474    0.4056725357600435    0.3825808312104175 Se
   0.4062957330139474    0.3431725357600435    0.3825808312104175 Se
   0.9062957330139474    0.3431725357600435    0.3825808312104175 Se
   0.1875457330139473    0.2806725357600435    0.3825808312104175 Se
   0.6875457330139477    0.2806725357600435    0.3825808312104175 Se
   0.4687957330139475    0.2181725357600435    0.3825808312104175 Se
   0.9687957330139477    0.2181725357600435    0.3825808312104175 Se
   0.2500457330139478    0.1556725357600435    0.3825808312104175 Se
   0.7500457330139476    0.1556725357600435    0.3825808312104175 Se
   0.5312957330139481    0.0931725357600435    0.3825808312104175 Se
   0.0312957330139479    0.0931725357600435    0.3825808312104175 Se
   0.3125457330139481    0.0306725357600435    0.3825808312104175 Se
   0.8125457330139478    0.0306725357600435    0.3825808312104175 Se
   0.0937957330139474    0.9681725357600435    0.3825808312104176 Se
   0.5937957330139477    0.9681725357600435    0.3825808312104176 Se
   0.1939917057924845    0.9454872373020268    0.8313182077635203 Se
   0.1939917057924844    0.0363963282111178    0.8313182077635204 Se
   0.1939917057924843    0.1273054191202087    0.8313182077635204 Se
   0.1939917057924844    0.2182145100292996    0.8313182077635204 Se
   0.1939917057924841    0.3091236009383905    0.8313182077635204 Se
   0.1939917057924843    0.4000326918474815    0.8313182077635204 Se
   0.1939917057924840    0.4909417827565723    0.8313182077635204 Se
   0.1939917057924840    0.5818508736656631    0.8313182077635204 Se
   0.1939917057924835    0.6727599645747542    0.8313182077635204 Se
   0.1939917057924844    0.7636690554838450    0.8313182077635204 Se
   0.1939917057924845    0.8545781463929359    0.8313182077635203 Se
   0.6939917057924845    0.9909417827565723    0.8313182077635204 Se
   0.6939917057924844    0.0818508736656632    0.8313182077635204 Se
   0.6939917057924846    0.1727599645747541    0.8313182077635204 Se
   0.6939917057924845    0.2636690554838450    0.8313182077635204 Se
   0.6939917057924846    0.3545781463929359    0.8313182077635204 Se
   0.6939917057924840    0.4454872373020268    0.8313182077635204 Se
   0.6939917057924844    0.5363963282111178    0.8313182077635204 Se
   0.6939917057924839    0.6273054191202088    0.8313182077635204 Se
   0.6939917057924845    0.7182145100292996    0.8313182077635204 Se
   0.6939917057924841    0.8091236009383905    0.8313182077635203 Se
   0.6939917057924839    0.9000326918474814    0.8313182077635203 Se
   0.8573921063940154    0.0370284406619271    0.7495056388254160 Se
   0.8573921063940154    0.1279375315710179    0.7495056388254160 Se
   0.8573921063940152    0.2188466224801089    0.7495056388254160 Se
   0.8573921063940153    0.3097557133891999    0.7495056388254160 Se
   0.8573921063940153    0.4006648042982907    0.7495056388254160 Se
   0.8573921063940149    0.4915738952073815    0.7495056388254160 Se
   0.8573921063940153    0.5824829861164725    0.7495056388254160 Se
   0.8573921063940149    0.6733920770255634    0.7495056388254160 Se
   0.8573921063940149    0.7643011679346543    0.7495056388254160 Se
   0.8573921063940158    0.8552102588437452    0.7495056388254160 Se
   0.8573921063940153    0.9461193497528361    0.7495056388254159 Se
   0.3573921063940156    0.0824829861164725    0.7495056388254160 Se
   0.3573921063940158    0.1733920770255634    0.7495056388254160 Se
   0.3573921063940158    0.2643011679346544    0.7495056388254160 Se
   0.3573921063940154    0.3552102588437452    0.7495056388254160 Se
   0.3573921063940155    0.4461193497528362    0.7495056388254160 Se
   0.3573921063940159    0.5370284406619270    0.7495056388254160 Se
   0.3573921063940156    0.6279375315710181    0.7495056388254160 Se
   0.3573921063940158    0.7188466224801090    0.7495056388254160 Se
   0.3573921063940160    0.8097557133891999    0.7495056388254159 Se
   0.3573921063940154    0.9006648042982907    0.7495056388254159 Se
   0.3573921063940154    0.9915738952073816    0.7495056388254160 Se
   0.0236605940519550    0.9912973053361629    0.6677845033197067 Se
   0.0236605940519550    0.0822063962452538    0.6677845033197067 Se
   0.0236605940519549    0.1731154871543447    0.6677845033197067 Se
   0.0236605940519549    0.2640245780634356    0.6677845033197067 Se
   0.0236605940519547    0.3549336689725266    0.6677845033197067 Se
   0.0236605940519552    0.4458427598816176    0.6677845033197067 Se
   0.0236605940519550    0.5367518507907085    0.6677845033197067 Se
   0.0236605940519546    0.6276609416997994    0.6677845033197068 Se
   0.0236605940519549    0.7185700326088903    0.6677845033197068 Se
   0.0236605940519551    0.8094791235179810    0.6677845033197068 Se
   0.0236605940519553    0.9003882144270718    0.6677845033197067 Se
   0.5236605940519551    0.0367518507907083    0.6677845033197067 Se
   0.5236605940519551    0.1276609416997992    0.6677845033197067 Se
   0.5236605940519549    0.2185700326088902    0.6677845033197067 Se
   0.5236605940519550    0.3094791235179811    0.6677845033197067 Se
   0.5236605940519551    0.4003882144270721    0.6677845033197067 Se
   0.5236605940519550    0.4912973053361629    0.6677845033197068 Se
   0.5236605940519554    0.5822063962452538    0.6677845033197068 Se
   0.5236605940519558    0.6731154871543448    0.6677845033197068 Se
   0.5236605940519550    0.7640245780634356    0.6677845033197067 Se
   0.5236605940519550    0.8549336689725264    0.6677845033197067 Se
   0.5236605940519549    0.9458427598816176    0.6677845033197067 Se
   0.8471451245389843    0.0362490795753651    0.6055580957863087 Se
   0.8471451245389843    0.1271581704844561    0.6055580957863087 Se
   0.8471451245389841    0.2180672613935469    0.6055580957863087 Se
   0.8471451245389843    0.3089763523026378    0.6055580957863087 Se
   0.8471451245389845    0.3998854432117288    0.6055580957863087 Se
   0.8471451245389843    0.4907945341208197    0.6055580957863087 Se
   0.8471451245389841    0.5817036250299106    0.6055580957863088 Se
   0.8471451245389836    0.6726127159390014    0.6055580957863088 Se
   0.8471451245389847    0.7635218068480925    0.6055580957863088 Se
   0.8471451245389838    0.8544308977571834    0.6055580957863088 Se
   0.8471451245389838    0.9453399886662741    0.6055580957863087 Se
   0.3471451245389844    0.0817036250299106    0.6055580957863087 Se
   0.3471451245389844    0.1726127159390015    0.6055580957863087 Se
   0.3471451245389845    0.2635218068480924    0.6055580957863087 Se
   0.3471451245389843    0.3544308977571833    0.6055580957863087 Se
   0.3471451245389841    0.4453399886662742    0.6055580957863087 Se
   0.3471451245389842    0.5362490795753651    0.6055580957863088 Se
   0.3471451245389846    0.6271581704844561    0.6055580957863088 Se
   0.3471451245389848    0.7180672613935468    0.6055580957863088 Se
   0.3471451245389836    0.8089763523026380    0.6055580957863087 Se
   0.3471451245389839    0.8998854432117287    0.6055580957863087 Se
   0.3471451245389843    0.9907945341208195    0.6055580957863087 Se
   0.0140020419658265    0.9903651225316373    0.5241890951556734 Se
   0.0140020419658264    0.0812742134407283    0.5241890951556734 Se
   0.0140020419658264    0.1721833043498192    0.5241890951556734 Se
   0.0140020419658264    0.2630923952589100    0.5241890951556734 Se
   0.0140020419658266    0.3540014861680010    0.5241890951556734 Se
   0.0140020419658269    0.4449105770770920    0.5241890951556734 Se
   0.0140020419658262    0.5358196679861829    0.5241890951556734 Se
   0.0140020419658263    0.6267287588952737    0.5241890951556735 Se
   0.0140020419658262    0.7176378498043647    0.5241890951556735 Se
   0.0140020419658261    0.8085469407134558    0.5241890951556735 Se
   0.0140020419658265    0.8994560316225465    0.5241890951556734 Se
   0.5140020419658268    0.0358196679861828    0.5241890951556734 Se
   0.5140020419658266    0.1267287588952737    0.5241890951556734 Se
   0.5140020419658264    0.2176378498043646    0.5241890951556734 Se
   0.5140020419658264    0.3085469407134555    0.5241890951556734 Se
   0.5140020419658268    0.3994560316225465    0.5241890951556734 Se
   0.5140020419658267    0.4903651225316373    0.5241890951556735 Se
   0.5140020419658267    0.5812742134407283    0.5241890951556735 Se
   0.5140020419658267    0.6721833043498193    0.5241890951556735 Se
   0.5140020419658269    0.7630923952589101    0.5241890951556735 Se
   0.5140020419658268    0.8540014861680012    0.5241890951556734 Se
   0.5140020419658266    0.9449105770770919    0.5241890951556734 Se
   0.1822413273198452    0.9447347108977857    0.4427015086099987 Se
   0.1822413273198455    0.0356438018068767    0.4427015086099987 Se
   0.1822413273198454    0.1265528927159676    0.4427015086099987 Se
   0.1822413273198455    0.2174619836250585    0.4427015086099987 Se
   0.1822413273198453    0.3083710745341495    0.4427015086099987 Se
   0.1822413273198453    0.3992801654432403    0.4427015086099987 Se
   0.1822413273198449    0.4901892563523311    0.4427015086099987 Se
   0.1822413273198452    0.5810983472614221    0.4427015086099987 Se
   0.1822413273198451    0.6720074381705129    0.4427015086099987 Se
   0.1822413273198452    0.7629165290796039    0.4427015086099987 Se
   0.1822413273198458    0.8538256199886949    0.4427015086099987 Se
   0.6822413273198460    0.9901892563523312    0.4427015086099987 Se
   0.6822413273198455    0.0810983472614221    0.4427015086099987 Se
   0.6822413273198458    0.1720074381705131    0.4427015086099987 Se
   0.6822413273198454    0.2629165290796040    0.4427015086099987 Se
   0.6822413273198455    0.3538256199886949    0.4427015086099987 Se
   0.6822413273198453    0.4447347108977857    0.4427015086099987 Se
   0.6822413273198453    0.5356438018068767    0.4427015086099987 Se
   0.6822413273198452    0.6265528927159676    0.4427015086099987 Se
   0.6822413273198453    0.7174619836250585    0.4427015086099987 Se
   0.6822413273198452    0.8083710745341494    0.4427015086099987 Se
   0.6822413273198454    0.8992801654432403    0.4427015086099987 Se
