Nb102 Bi140 Se414
1.0
  21.0680785732141196    0.0000000000000000    0.0000000000000013
   9.9646317563579707   25.1491906454596013    0.0000000000000017
   0.0000000000000000    0.0000000000000000   49.9893053307188922
Nb Bi Se
102 140 414
direct
   0.7364286135142982    0.1076642425306674    0.3566429020965912 Nb
   0.8344678292005725    0.1860956150796870    0.3566429020965912 Nb
   0.4619188095927294    0.0880563993934126    0.3566429020965912 Nb
   0.5599580252790041    0.1664877719424321    0.3566429020965912 Nb
   0.6579972409652785    0.2449191444914517    0.3566429020965912 Nb
   0.7560364566515526    0.3233505170404714    0.3566429020965912 Nb
   0.8540756723378276    0.4017818895894910    0.3566429020965912 Nb
   0.1874090056711609    0.0684485562561576    0.3566429020965912 Nb
   0.2854482213574353    0.1468799288051773    0.3566429020965912 Nb
   0.3834874370437099    0.2253113013541969    0.3566429020965912 Nb
   0.4815266527299843    0.3037426739032165    0.3566429020965912 Nb
   0.5795658684162588    0.3821740464522361    0.3566429020965912 Nb
   0.6776050841025333    0.4606054190012558    0.3566429020965912 Nb
   0.7756442997888076    0.5390367915502754    0.3566429020965912 Nb
   0.8736835154750826    0.6174681640992952    0.3566429020965912 Nb
   0.9128992017495922    0.0488407131189028    0.3566429020965912 Nb
   0.0109384174358667    0.1272720856679224    0.3566429020965912 Nb
   0.1089776331221412    0.2057034582169420    0.3566429020965912 Nb
   0.2070168488084157    0.2841348307659616    0.3566429020965912 Nb
   0.3050560644946902    0.3625662033149812    0.3566429020965912 Nb
   0.4030952801809648    0.4409975758640007    0.3566429020965912 Nb
   0.5011344958672391    0.5194289484130206    0.3566429020965912 Nb
   0.5991737115535137    0.5978603209620400    0.3566429020965912 Nb
   0.6972129272397879    0.6762916935110598    0.3566429020965912 Nb
   0.7952521429260626    0.7547230660600794    0.3566429020965912 Nb
   0.8932913586123375    0.8331544386090989    0.3566429020965912 Nb
   0.9325070448868472    0.2645269876287067    0.3566429020965912 Nb
   0.0305462605731216    0.3429583601777262    0.3566429020965912 Nb
   0.1285854762593961    0.4213897327267460    0.3566429020965912 Nb
   0.2266246919456708    0.4998211052757657    0.3566429020965912 Nb
   0.3246639076319451    0.5782524778247851    0.3566429020965912 Nb
   0.4227031233182196    0.6566838503738048    0.3566429020965912 Nb
   0.5207423390044938    0.7351152229228244    0.3566429020965912 Nb
   0.6187815546907687    0.8135465954718439    0.3566429020965912 Nb
   0.7168207703770428    0.8919779680208638    0.3566429020965912 Nb
   0.8148599860633178    0.9704093405698834    0.3566429020965912 Nb
   0.9521148880241023    0.4802132621385106    0.3566429020965912 Nb
   0.0501541037103765    0.5586446346875301    0.3566429020965912 Nb
   0.1481933193966509    0.6370760072365499    0.3566429020965912 Nb
   0.2462325350829254    0.7155073797855697    0.3566429020965912 Nb
   0.3442717507692001    0.7939387523345893    0.3566429020965912 Nb
   0.4423109664554745    0.8723701248836087    0.3566429020965912 Nb
   0.5403501821417490    0.9508014974326283    0.3566429020965912 Nb
   0.6383893978280235    0.0292328699816481    0.3566429020965912 Nb
   0.9717227311613570    0.6958995366483146    0.3566429020965912 Nb
   0.0697619468476315    0.7743309091973344    0.3566429020965912 Nb
   0.1678011625339060    0.8527622817463538    0.3566429020965912 Nb
   0.2658403782201804    0.9311936542953734    0.3566429020965912 Nb
   0.3638795939064550    0.0096250268443930    0.3566429020965912 Nb
   0.9913305742986117    0.9115858111581185    0.3566429020965912 Nb
   0.0893697899848863    0.9900171837071380    0.3566429020965912 Nb
   0.7360418927341470    0.1080053761757682    0.2336917587878816 Nb
   0.8340811084204213    0.1864367487247877    0.2336917587878816 Nb
   0.4615320888125780    0.0883975330385133    0.2336917587878816 Nb
   0.5595713044988528    0.1668289055875329    0.2336917587878816 Nb
   0.6576105201851271    0.2452602781365525    0.2336917587878816 Nb
   0.7556497358714016    0.3236916506855722    0.2336917587878816 Nb
   0.8536889515576762    0.4021230232345918    0.2336917587878816 Nb
   0.1870222848910096    0.0687896899012583    0.2336917587878816 Nb
   0.2850615005772840    0.1472210624502780    0.2336917587878816 Nb
   0.3831007162635587    0.2256524349992976    0.2336917587878816 Nb
   0.4811399319498331    0.3040838075483173    0.2336917587878816 Nb
   0.5791791476361074    0.3825151800973369    0.2336917587878816 Nb
   0.6772183633223823    0.4609465526463564    0.2336917587878816 Nb
   0.7752575790086563    0.5393779251953762    0.2336917587878816 Nb
   0.8732967946949313    0.6178092977443959    0.2336917587878816 Nb
   0.9125124809694412    0.0491818467640034    0.2336917587878816 Nb
   0.0105516966557155    0.1276132193130231    0.2336917587878816 Nb
   0.1085909123419899    0.2060445918620427    0.2336917587878816 Nb
   0.2066301280282644    0.2844759644110624    0.2336917587878816 Nb
   0.3046693437145389    0.3629073369600820    0.2336917587878816 Nb
   0.4027085594008136    0.4413387095091015    0.2336917587878816 Nb
   0.5007477750870880    0.5197700820581211    0.2336917587878816 Nb
   0.5987869907733624    0.5982014546071408    0.2336917587878816 Nb
   0.6968262064596368    0.6766328271561605    0.2336917587878816 Nb
   0.7948654221459116    0.7550641997051800    0.2336917587878816 Nb
   0.8929046378321861    0.8334955722541995    0.2336917587878816 Nb
   0.9321203241066960    0.2648681212738074    0.2336917587878816 Nb
   0.0301595397929704    0.3432994938228271    0.2336917587878816 Nb
   0.1281987554792448    0.4217308663718467    0.2336917587878816 Nb
   0.2262379711655194    0.5001622389208662    0.2336917587878816 Nb
   0.3242771868517940    0.5785936114698859    0.2336917587878816 Nb
   0.4223164025380685    0.6570249840189057    0.2336917587878816 Nb
   0.5203556182243426    0.7354563565679253    0.2336917587878816 Nb
   0.6183948339106176    0.8138877291169447    0.2336917587878816 Nb
   0.7164340495968918    0.8923191016659643    0.2336917587878816 Nb
   0.8144732652831665    0.9707504742149841    0.2336917587878816 Nb
   0.9517281672439506    0.4805543957836114    0.2336917587878816 Nb
   0.0497673829302253    0.5589857683326309    0.2336917587878816 Nb
   0.1478065986164997    0.6374171408816506    0.2336917587878816 Nb
   0.2458458143027743    0.7158485134306706    0.2336917587878816 Nb
   0.3438850299890487    0.7942798859796899    0.2336917587878816 Nb
   0.4419242456753232    0.8727112585287093    0.2336917587878816 Nb
   0.5399634613615978    0.9511426310777290    0.2336917587878816 Nb
   0.6380026770478723    0.0295740036267488    0.2336917587878816 Nb
   0.9713360103812058    0.6962406702934155    0.2336917587878816 Nb
   0.0693752260674802    0.7746720428424350    0.2336917587878816 Nb
   0.1674144417537547    0.8531034153914545    0.2336917587878816 Nb
   0.2654536574400291    0.9315347879404743    0.2336917587878816 Nb
   0.3634928731263037    0.0099661604894937    0.2336917587878816 Nb
   0.9909438535184605    0.9119269448032192    0.2336917587878816 Nb
   0.0889830692047350    0.9903583173522389    0.2336917587878816 Nb
   0.6268295593761056    0.0852379034776941    0.7671208852038270 Bi
   0.6554009879475342    0.2280950463348370    0.7671208852038270 Bi
   0.6839724165189627    0.3709521891919799    0.7671208852038270 Bi
   0.7125438450903913    0.5138093320491226    0.7671208852038270 Bi
   0.7411152736618202    0.6566664749062657    0.7671208852038269 Bi
   0.7696867022332485    0.7995236177634084    0.7671208852038269 Bi
   0.7982581308046769    0.9423807606205512    0.7671208852038269 Bi
   0.4268295593761056    0.0852379034776941    0.7671208852038270 Bi
   0.4554009879475341    0.2280950463348370    0.7671208852038270 Bi
   0.4839724165189628    0.3709521891919799    0.7671208852038270 Bi
   0.5125438450903914    0.5138093320491226    0.7671208852038270 Bi
   0.5411152736618201    0.6566664749062657    0.7671208852038270 Bi
   0.5696867022332485    0.7995236177634084    0.7671208852038269 Bi
   0.5982581308046772    0.9423807606205512    0.7671208852038269 Bi
   0.2268295593761054    0.0852379034776941    0.7671208852038270 Bi
   0.2554009879475340    0.2280950463348370    0.7671208852038270 Bi
   0.2839724165189627    0.3709521891919799    0.7671208852038270 Bi
   0.3125438450903913    0.5138093320491226    0.7671208852038270 Bi
   0.3411152736618199    0.6566664749062657    0.7671208852038270 Bi
   0.3696867022332483    0.7995236177634084    0.7671208852038270 Bi
   0.3982581308046773    0.9423807606205512    0.7671208852038269 Bi
   0.0268295593761054    0.0852379034776941    0.7671208852038270 Bi
   0.0554009879475340    0.2280950463348370    0.7671208852038270 Bi
   0.0839724165189625    0.3709521891919799    0.7671208852038270 Bi
   0.1125438450903911    0.5138093320491226    0.7671208852038270 Bi
   0.1411152736618199    0.6566664749062657    0.7671208852038270 Bi
   0.1696867022332485    0.7995236177634084    0.7671208852038270 Bi
   0.1982581308046771    0.9423807606205512    0.7671208852038270 Bi
   0.8268295593761055    0.0852379034776941    0.7671208852038270 Bi
   0.8554009879475343    0.2280950463348370    0.7671208852038270 Bi
   0.8839724165189625    0.3709521891919799    0.7671208852038270 Bi
   0.9125438450903912    0.5138093320491226    0.7671208852038269 Bi
   0.9411152736618199    0.6566664749062657    0.7671208852038269 Bi
   0.9696867022332484    0.7995236177634084    0.7671208852038270 Bi
   0.9982581308046770    0.9423807606205512    0.7671208852038270 Bi
   0.7524770942002483    0.0372654743383526    0.6873709670584138 Bi
   0.7810485227716770    0.1801226171954954    0.6873709670584138 Bi
   0.8096199513431053    0.3229797600526382    0.6873709670584138 Bi
   0.8381913799145344    0.4658369029097811    0.6873709670584138 Bi
   0.8667628084859628    0.6086940457669240    0.6873709670584138 Bi
   0.8953342370573913    0.7515511886240668    0.6873709670584138 Bi
   0.9239056656288197    0.8944083314812096    0.6873709670584138 Bi
   0.5524770942002483    0.0372654743383526    0.6873709670584138 Bi
   0.5810485227716770    0.1801226171954954    0.6873709670584138 Bi
   0.6096199513431055    0.3229797600526382    0.6873709670584138 Bi
   0.6381913799145340    0.4658369029097811    0.6873709670584138 Bi
   0.6667628084859627    0.6086940457669240    0.6873709670584138 Bi
   0.6953342370573916    0.7515511886240668    0.6873709670584138 Bi
   0.7239056656288200    0.8944083314812096    0.6873709670584138 Bi
   0.3524770942002483    0.0372654743383526    0.6873709670584138 Bi
   0.3810485227716768    0.1801226171954954    0.6873709670584138 Bi
   0.4096199513431055    0.3229797600526382    0.6873709670584138 Bi
   0.4381913799145341    0.4658369029097811    0.6873709670584138 Bi
   0.4667628084859627    0.6086940457669240    0.6873709670584138 Bi
   0.4953342370573913    0.7515511886240668    0.6873709670584138 Bi
   0.5239056656288196    0.8944083314812096    0.6873709670584138 Bi
   0.1524770942002481    0.0372654743383526    0.6873709670584138 Bi
   0.1810485227716768    0.1801226171954954    0.6873709670584138 Bi
   0.2096199513431056    0.3229797600526382    0.6873709670584138 Bi
   0.2381913799145340    0.4658369029097811    0.6873709670584138 Bi
   0.2667628084859627    0.6086940457669240    0.6873709670584138 Bi
   0.2953342370573911    0.7515511886240668    0.6873709670584138 Bi
   0.3239056656288197    0.8944083314812096    0.6873709670584138 Bi
   0.9524770942002482    0.0372654743383526    0.6873709670584138 Bi
   0.9810485227716768    0.1801226171954954    0.6873709670584138 Bi
   0.0096199513431053    0.3229797600526382    0.6873709670584138 Bi
   0.0381913799145339    0.4658369029097811    0.6873709670584138 Bi
   0.0667628084859626    0.6086940457669240    0.6873709670584138 Bi
   0.0953342370573911    0.7515511886240668    0.6873709670584138 Bi
   0.1239056656288198    0.8944083314812096    0.6873709670584138 Bi
   0.7546260179328613    0.0346725365881838    0.5665155440360311 Bi
   0.7831974465042898    0.1775296794453267    0.5665155440360311 Bi
   0.8117688750757180    0.3203868223024696    0.5665155440360311 Bi
   0.8403403036471468    0.4632439651596125    0.5665155440360311 Bi
   0.8689117322185755    0.6061011080167552    0.5665155440360311 Bi
   0.8974831607900041    0.7489582508738980    0.5665155440360311 Bi
   0.9260545893614324    0.8918153937310410    0.5665155440360311 Bi
   0.5546260179328610    0.0346725365881838    0.5665155440360311 Bi
   0.5831974465042897    0.1775296794453267    0.5665155440360311 Bi
   0.6117688750757182    0.3203868223024696    0.5665155440360311 Bi
   0.6403403036471468    0.4632439651596125    0.5665155440360311 Bi
   0.6689117322185757    0.6061011080167552    0.5665155440360311 Bi
   0.6974831607900042    0.7489582508738980    0.5665155440360311 Bi
   0.7260545893614326    0.8918153937310410    0.5665155440360311 Bi
   0.3546260179328611    0.0346725365881838    0.5665155440360311 Bi
   0.3831974465042896    0.1775296794453267    0.5665155440360311 Bi
   0.4117688750757181    0.3203868223024696    0.5665155440360311 Bi
   0.4403403036471468    0.4632439651596125    0.5665155440360311 Bi
   0.4689117322185755    0.6061011080167552    0.5665155440360311 Bi
   0.4974831607900041    0.7489582508738980    0.5665155440360311 Bi
   0.5260545893614326    0.8918153937310410    0.5665155440360311 Bi
   0.1546260179328610    0.0346725365881838    0.5665155440360311 Bi
   0.1831974465042897    0.1775296794453267    0.5665155440360311 Bi
   0.2117688750757182    0.3203868223024696    0.5665155440360311 Bi
   0.2403403036471467    0.4632439651596125    0.5665155440360311 Bi
   0.2689117322185753    0.6061011080167552    0.5665155440360311 Bi
   0.2974831607900040    0.7489582508738980    0.5665155440360311 Bi
   0.3260545893614326    0.8918153937310410    0.5665155440360311 Bi
   0.9546260179328612    0.0346725365881838    0.5665155440360311 Bi
   0.9831974465042895    0.1775296794453267    0.5665155440360311 Bi
   0.0117688750757181    0.3203868223024696    0.5665155440360311 Bi
   0.0403403036471467    0.4632439651596125    0.5665155440360311 Bi
   0.0689117322185753    0.6061011080167552    0.5665155440360311 Bi
   0.0974831607900040    0.7489582508738980    0.5665155440360311 Bi
   0.1260545893614325    0.8918153937310410    0.5665155440360311 Bi
   0.6791829053114962    0.9874217324415381    0.4870641414761425 Bi
   0.7077543338829249    0.1302788752986810    0.4870641414761425 Bi
   0.7363257624543532    0.2731360181558238    0.4870641414761425 Bi
   0.7648971910257821    0.4159931610129666    0.4870641414761425 Bi
   0.7934686195972108    0.5588503038701095    0.4870641414761425 Bi
   0.8220400481686394    0.7017074467272524    0.4870641414761425 Bi
   0.8506114767400674    0.8445645895843955    0.4870641414761425 Bi
   0.4791829053114963    0.9874217324415381    0.4870641414761425 Bi
   0.5077543338829249    0.1302788752986810    0.4870641414761425 Bi
   0.5363257624543534    0.2731360181558238    0.4870641414761425 Bi
   0.5648971910257822    0.4159931610129666    0.4870641414761425 Bi
   0.5934686195972108    0.5588503038701095    0.4870641414761425 Bi
   0.6220400481686394    0.7017074467272524    0.4870641414761425 Bi
   0.6506114767400677    0.8445645895843955    0.4870641414761425 Bi
   0.2791829053114962    0.9874217324415381    0.4870641414761425 Bi
   0.3077543338829248    0.1302788752986810    0.4870641414761425 Bi
   0.3363257624543535    0.2731360181558238    0.4870641414761425 Bi
   0.3648971910257819    0.4159931610129666    0.4870641414761425 Bi
   0.3934686195972105    0.5588503038701095    0.4870641414761425 Bi
   0.4220400481686392    0.7017074467272524    0.4870641414761425 Bi
   0.4506114767400676    0.8445645895843955    0.4870641414761425 Bi
   0.0791829053114962    0.9874217324415381    0.4870641414761425 Bi
   0.1077543338829248    0.1302788752986810    0.4870641414761425 Bi
   0.1363257624543533    0.2731360181558238    0.4870641414761425 Bi
   0.1648971910257820    0.4159931610129666    0.4870641414761425 Bi
   0.1934686195972106    0.5588503038701095    0.4870641414761425 Bi
   0.2220400481686390    0.7017074467272524    0.4870641414761425 Bi
   0.2506114767400675    0.8445645895843955    0.4870641414761425 Bi
   0.8791829053114963    0.9874217324415381    0.4870641414761425 Bi
   0.9077543338829250    0.1302788752986810    0.4870641414761425 Bi
   0.9363257624543532    0.2731360181558238    0.4870641414761425 Bi
   0.9648971910257820    0.4159931610129666    0.4870641414761425 Bi
   0.9934686195972106    0.5588503038701095    0.4870641414761425 Bi
   0.0220400481686389    0.7017074467272524    0.4870641414761425 Bi
   0.0506114767400675    0.8445645895843955    0.4870641414761425 Bi
   0.7294785169447429    0.0361115181882448    0.2000427878291579 Se
   0.8275177326310177    0.1145428907372642    0.2000427878291579 Se
   0.4549687130231744    0.0165036750509899    0.2000427878291579 Se
   0.5530079287094490    0.0949350476000094    0.2000427878291579 Se
   0.6510471443957233    0.1733664201490291    0.2000427878291579 Se
   0.7490863600819978    0.2517977926980488    0.2000427878291579 Se
   0.8471255757682726    0.3302291652470683    0.2000427878291579 Se
   0.1804589091016059    0.9968958319137350    0.2000427878291579 Se
   0.2784981247878803    0.0753272044627546    0.2000427878291579 Se
   0.3765373404741549    0.1537585770117742    0.2000427878291579 Se
   0.4745765561604294    0.2321899495607938    0.2000427878291579 Se
   0.5726157718467038    0.3106213221098134    0.2000427878291579 Se
   0.6706549875329783    0.3890526946588331    0.2000427878291579 Se
   0.7686942032192527    0.4674840672078526    0.2000427878291579 Se
   0.8667334189055276    0.5459154397568723    0.2000427878291579 Se
   0.9059491051800372    0.9772879887764802    0.2000427878291579 Se
   0.0039883208663118    0.0557193613254997    0.2000427878291579 Se
   0.1020275365525863    0.1341507338745193    0.2000427878291579 Se
   0.2000667522388608    0.2125821064235389    0.2000427878291579 Se
   0.2981059679251352    0.2910134789725585    0.2000427878291579 Se
   0.3961451836114098    0.3694448515215781    0.2000427878291579 Se
   0.4941843992976843    0.4478762240705979    0.2000427878291579 Se
   0.5922236149839588    0.5263075966196175    0.2000427878291579 Se
   0.6902628306702333    0.6047389691686372    0.2000427878291579 Se
   0.7883020463565076    0.6831703417176566    0.2000427878291579 Se
   0.8863412620427825    0.7616017142666762    0.2000427878291579 Se
   0.9255569483172922    0.1929742632862840    0.2000427878291579 Se
   0.0235961640035667    0.2714056358353036    0.2000427878291579 Se
   0.1216353796898412    0.3498370083843233    0.2000427878291579 Se
   0.2196745953761157    0.4282683809333430    0.2000427878291579 Se
   0.3177138110623901    0.5066997534823625    0.2000427878291579 Se
   0.4157530267486647    0.5851311260313822    0.2000427878291579 Se
   0.5137922424349390    0.6635624985804018    0.2000427878291579 Se
   0.6118314581212136    0.7419938711294213    0.2000427878291579 Se
   0.7098706738074881    0.8204252436784412    0.2000427878291579 Se
   0.8079098894937629    0.8988566162274606    0.2000427878291579 Se
   0.9451647914545471    0.4086605377960879    0.2000427878291579 Se
   0.0432040071408215    0.4870919103451075    0.2000427878291579 Se
   0.1412432228270961    0.5655232828941271    0.2000427878291579 Se
   0.2392824385133705    0.6439546554431469    0.2000427878291579 Se
   0.3373216541996450    0.7223860279921664    0.2000427878291579 Se
   0.4353608698859195    0.8008174005411861    0.2000427878291579 Se
   0.5334000855721940    0.8792487730902058    0.2000427878291579 Se
   0.6314393012584687    0.9576801456392251    0.2000427878291579 Se
   0.9647726345918021    0.6243468123058920    0.2000427878291579 Se
   0.0628118502780765    0.7027781848549117    0.2000427878291579 Se
   0.1608510659643509    0.7812095574039314    0.2000427878291579 Se
   0.2588902816506256    0.8596409299529507    0.2000427878291579 Se
   0.3569294973369000    0.9380723025019705    0.2000427878291579 Se
   0.9843804777290569    0.8400330868156960    0.2000427878291579 Se
   0.0824196934153313    0.9184644593647154    0.2000427878291579 Se
   0.8213835846197887    0.0423024760015501    0.3229896502366212 Se
   0.9194228003060629    0.1207338485505697    0.3229896502366213 Se
   0.5468737806982201    0.0226946328642952    0.3229896502366212 Se
   0.6449129963844947    0.1011260054133148    0.3229896502366212 Se
   0.7429522120707691    0.1795573779623344    0.3229896502366213 Se
   0.8409914277570436    0.2579887505113541    0.3229896502366213 Se
   0.9390306434433181    0.3364201230603737    0.3229896502366213 Se
   0.2723639767766514    0.0030867897270403    0.3229896502366212 Se
   0.3704031924629260    0.0815181622760599    0.3229896502366212 Se
   0.4684424081492004    0.1599495348250796    0.3229896502366212 Se
   0.5664816238354750    0.2383809073740992    0.3229896502366212 Se
   0.6645208395217496    0.3168122799231188    0.3229896502366213 Se
   0.7625600552080239    0.3952436524721385    0.3229896502366213 Se
   0.8605992708942981    0.4736750250211580    0.3229896502366213 Se
   0.9586384865805729    0.5521063975701777    0.3229896502366213 Se
   0.9978541728550828    0.9834789465897854    0.3229896502366212 Se
   0.0958933885413573    0.0619103191388050    0.3229896502366212 Se
   0.1939326042276318    0.1403416916878247    0.3229896502366212 Se
   0.2919718199139062    0.2187730642368443    0.3229896502366212 Se
   0.3900110356001807    0.2972044367858639    0.3229896502366212 Se
   0.4880502512864554    0.3756358093348836    0.3229896502366213 Se
   0.5860894669727298    0.4540671818839032    0.3229896502366213 Se
   0.6841286826590043    0.5324985544329229    0.3229896502366213 Se
   0.7821678983452789    0.6109299269819425    0.3229896502366213 Se
   0.8802071140315534    0.6893612995309619    0.3229896502366213 Se
   0.9782463297178278    0.7677926720799816    0.3229896502366213 Se
   0.0174620159923377    0.1991652210995893    0.3229896502366212 Se
   0.1155012316786122    0.2775965936486089    0.3229896502366212 Se
   0.2135404473648867    0.3560279661976287    0.3229896502366212 Se
   0.3115796630511613    0.4344593387466482    0.3229896502366212 Se
   0.4096188787374356    0.5128907112956679    0.3229896502366213 Se
   0.5076580944237101    0.5913220838446878    0.3229896502366213 Se
   0.6056973101099848    0.6697534563937071    0.3229896502366213 Se
   0.7037365257962592    0.7481848289427266    0.3229896502366213 Se
   0.8017757414825337    0.8266162014917465    0.3229896502366213 Se
   0.8998149571688083    0.9050475740407659    0.3229896502366212 Se
   0.0370698591295926    0.4148514956093933    0.3229896502366212 Se
   0.1351090748158671    0.4932828681584129    0.3229896502366212 Se
   0.2331482905021416    0.5717142407074327    0.3229896502366213 Se
   0.3311875061884161    0.6501456132564524    0.3229896502366213 Se
   0.4292267218746906    0.7285769858054718    0.3229896502366213 Se
   0.5272659375609650    0.8070083583544915    0.3229896502366213 Se
   0.6253051532472397    0.8854397309035110    0.3229896502366213 Se
   0.7233443689335142    0.9638711034525306    0.3229896502366212 Se
   0.0566777022668475    0.6305377701191973    0.3229896502366212 Se
   0.1547169179531221    0.7089691426682170    0.3229896502366213 Se
   0.2527561336393966    0.7874005152172366    0.3229896502366213 Se
   0.3507953493256711    0.8658318877662561    0.3229896502366213 Se
   0.4488345650119456    0.9442632603152757    0.3229896502366213 Se
   0.0762855454041023    0.8462240446290014    0.3229896502366213 Se
   0.1743247610903768    0.9246554171780209    0.3229896502366213 Se
   0.7295310400333530    0.0360847680730479    0.2673459347889959 Se
   0.8275702557196278    0.1145161406220673    0.2673459347889959 Se
   0.4550212361117844    0.0164769249357930    0.2673459347889959 Se
   0.5530604517980590    0.0949082974848125    0.2673459347889959 Se
   0.6510996674843335    0.1733396700338322    0.2673459347889959 Se
   0.7491388831706076    0.2517710425828519    0.2673459347889959 Se
   0.8471780988568823    0.3302024151318714    0.2673459347889959 Se
   0.1805114321902160    0.9968690817985381    0.2673459347889959 Se
   0.2785506478764904    0.0753004543475577    0.2673459347889959 Se
   0.3765898635627650    0.1537318268965773    0.2673459347889959 Se
   0.4746290792490395    0.2321631994455969    0.2673459347889959 Se
   0.5726682949353138    0.3105945719946164    0.2673459347889959 Se
   0.6707075106215882    0.3890259445436361    0.2673459347889959 Se
   0.7687467263078626    0.4674573170926557    0.2673459347889959 Se
   0.8667859419941375    0.5458886896416754    0.2673459347889959 Se
   0.9060016282686472    0.9772612386612832    0.2673459347889959 Se
   0.0040408439549218    0.0556926112103028    0.2673459347889959 Se
   0.1020800596411963    0.1341239837593224    0.2673459347889959 Se
   0.2001192753274708    0.2125553563083420    0.2673459347889959 Se
   0.2981584910137453    0.2909867288573617    0.2673459347889959 Se
   0.3961977067000198    0.3694181014063813    0.2673459347889959 Se
   0.4942369223862942    0.4478494739554009    0.2673459347889959 Se
   0.5922761380725688    0.5262808465044204    0.2673459347889959 Se
   0.6903153537588431    0.6047122190534403    0.2673459347889959 Se
   0.7883545694451177    0.6831435916024597    0.2673459347889959 Se
   0.8863937851313924    0.7615749641514793    0.2673459347889959 Se
   0.9256094714059023    0.1929475131710871    0.2673459347889959 Se
   0.0236486870921767    0.2713788857201068    0.2673459347889959 Se
   0.1216879027784511    0.3498102582691265    0.2673459347889959 Se
   0.2197271184647257    0.4282416308181460    0.2673459347889959 Se
   0.3177663341510002    0.5066730033671655    0.2673459347889959 Se
   0.4158055498372748    0.5851043759161852    0.2673459347889959 Se
   0.5138447655235491    0.6635357484652049    0.2673459347889959 Se
   0.6118839812098237    0.7419671210142244    0.2673459347889959 Se
   0.7099231968960982    0.8203984935632439    0.2673459347889959 Se
   0.8079624125823729    0.8988298661122636    0.2673459347889959 Se
   0.9452173145431573    0.4086337876808910    0.2673459347889959 Se
   0.0432565302294316    0.4870651602299106    0.2673459347889959 Se
   0.1412957459157061    0.5654965327789302    0.2673459347889959 Se
   0.2393349616019805    0.6439279053279501    0.2673459347889959 Se
   0.3373741772882549    0.7223592778769695    0.2673459347889959 Se
   0.4354133929745296    0.8007906504259892    0.2673459347889959 Se
   0.5334526086608041    0.8792220229750088    0.2673459347889959 Se
   0.6314918243470785    0.9576533955240282    0.2673459347889959 Se
   0.9648251576804121    0.6243200621906950    0.2673459347889959 Se
   0.0628643733666865    0.7027514347397148    0.2673459347889959 Se
   0.1609035890529610    0.7811828072887345    0.2673459347889959 Se
   0.2589428047392355    0.8596141798377538    0.2673459347889959 Se
   0.3569820204255100    0.9380455523867736    0.2673459347889959 Se
   0.9844330008176669    0.8400063367004991    0.2673459347889959 Se
   0.0824722165039413    0.9184377092495186    0.2673459347889959 Se
   0.8214371586925585    0.0422821226221761    0.3902928416568580 Se
   0.9194763743788332    0.1207134951711957    0.3902928416568580 Se
   0.5469273547709901    0.0226742794849211    0.3902928416568579 Se
   0.6449665704572645    0.1011056520339407    0.3902928416568580 Se
   0.7430057861435390    0.1795370245829604    0.3902928416568580 Se
   0.8410450018298135    0.2579683971319799    0.3902928416568580 Se
   0.9390842175160879    0.3363997696809995    0.3902928416568580 Se
   0.2724175508494213    0.0030664363476662    0.3902928416568579 Se
   0.3704567665356958    0.0814978088966858    0.3902928416568579 Se
   0.4684959822219703    0.1599291814457054    0.3902928416568580 Se
   0.5665351979082449    0.2383605539947252    0.3902928416568580 Se
   0.6645744135945193    0.3167919265437447    0.3902928416568580 Se
   0.7626136292807938    0.3952232990927643    0.3902928416568580 Se
   0.8606528449670680    0.4736546716417839    0.3902928416568580 Se
   0.9586920606533430    0.5520860441908036    0.3902928416568580 Se
   0.9979077469278527    0.9834585932104113    0.3902928416568579 Se
   0.0959469626141272    0.0618899657594310    0.3902928416568579 Se
   0.1939861783004017    0.1403213383084506    0.3902928416568579 Se
   0.2920253939866762    0.2187527108574703    0.3902928416568579 Se
   0.3900646096729506    0.2971840834064899    0.3902928416568580 Se
   0.4881038253592252    0.3756154559555094    0.3902928416568580 Se
   0.5861430410454996    0.4540468285045291    0.3902928416568580 Se
   0.6841822567317744    0.5324782010535486    0.3902928416568580 Se
   0.7822214724180486    0.6109095736025683    0.3902928416568580 Se
   0.8802606881043231    0.6893409461515877    0.3902928416568579 Se
   0.9782999037905978    0.7677723187006074    0.3902928416568580 Se
   0.0175155900651076    0.1991448677202153    0.3902928416568579 Se
   0.1155548057513821    0.2775762402692349    0.3902928416568579 Se
   0.2135940214376565    0.3560076128182545    0.3902928416568580 Se
   0.3116332371239311    0.4344389853672742    0.3902928416568580 Se
   0.4096724528102056    0.5128703579162937    0.3902928416568580 Se
   0.5077116684964801    0.5913017304653135    0.3902928416568580 Se
   0.6057508841827545    0.6697331030143330    0.3902928416568580 Se
   0.7037900998690292    0.7481644755633525    0.3902928416568580 Se
   0.8018293155553033    0.8265958481123722    0.3902928416568579 Se
   0.8998685312415784    0.9050272206613920    0.3902928416568579 Se