{'film_sl_vectors': array([[ 12.51248351,   0.        ,   0.        ],
       [  6.25624176, -10.83612859,  -0.        ]]), 'substrate_sl_vectors': array([[-3.46357078, 11.99816114,  0.        ],
       [ 8.65892695,  8.99862085, -0.        ]]), 'film_vectors': array([[ 4.17082784,  0.        ,  0.        ],
       [-2.08541392,  3.61204286,  0.        ]]), 'substrate_vectors': array([[ 3.46357078,  0.        ,  0.        ],
       [-1.73178539,  2.99954028,  0.        ]]), 'film_transformation': array([[3., 0.],
       [0., 3.]]), 'substrate_transformation': array([[ 1.,  4.],
       [ 0., 13.]]), 'strain': Strain([[-1.94826803e-03  1.69886916e-11  0.00000000e+00]
 [ 1.69886916e-11 -1.94826802e-03  0.00000000e+00]
 [ 0.00000000e+00  0.00000000e+00  0.00000000e+00]]), 'von_mises_strain': 0.0012988453492620755, 'termination': ('default', 'default'), 'film_thickness': 1, 'substrate_thickness': 1, 'signed_angle': 106.1021137529632, 'decomposition_angle': -106.10211375198601}