Nb60 Bi84 Se246
1.0
  17.9972417086755208    0.0000000000000000    0.0000000000000011
   5.9990805695585037   17.3178539097327011    0.0000000000000011
   0.0000000000000000    0.0000000000000000   44.4624158930297497
Nb Bi Se
60 84 246
direct
   0.0634447466581859    0.9857578602306164    0.3447480443666843 Nb
   0.1967780799915193    0.0857578602306164    0.3447480443666843 Nb
   0.3967780799915192    0.9857578602306164    0.3447480443666843 Nb
   0.1301114133248527    0.2857578602306163    0.3447480443666843 Nb
   0.3301114133248526    0.1857578602306164    0.3447480443666843 Nb
   0.5301114133248527    0.0857578602306164    0.3447480443666843 Nb
   0.7301114133248524    0.9857578602306164    0.3447480443666843 Nb
   0.0634447466581859    0.4857578602306165    0.3447480443666843 Nb
   0.2634447466581860    0.3857578602306164    0.3447480443666843 Nb
   0.4634447466581859    0.2857578602306163    0.3447480443666843 Nb
   0.6634447466581859    0.1857578602306164    0.3447480443666843 Nb
   0.8634447466581862    0.0857578602306164    0.3447480443666843 Nb
   0.1967780799915192    0.5857578602306164    0.3447480443666843 Nb
   0.3967780799915193    0.4857578602306163    0.3447480443666843 Nb
   0.5967780799915193    0.3857578602306164    0.3447480443666843 Nb
   0.7967780799915195    0.2857578602306163    0.3447480443666843 Nb
   0.9967780799915191    0.1857578602306163    0.3447480443666843 Nb
   0.1301114133248527    0.7857578602306162    0.3447480443666843 Nb
   0.3301114133248527    0.6857578602306164    0.3447480443666843 Nb
   0.5301114133248526    0.5857578602306164    0.3447480443666843 Nb
   0.7301114133248524    0.4857578602306163    0.3447480443666843 Nb
   0.9301114133248527    0.3857578602306163    0.3447480443666843 Nb
   0.2634447466581860    0.8857578602306162    0.3447480443666843 Nb
   0.4634447466581860    0.7857578602306163    0.3447480443666843 Nb
   0.6634447466581860    0.6857578602306165    0.3447480443666843 Nb
   0.8634447466581858    0.5857578602306164    0.3447480443666843 Nb
   0.5967780799915194    0.8857578602306162    0.3447480443666843 Nb
   0.7967780799915193    0.7857578602306162    0.3447480443666843 Nb
   0.9967780799915191    0.6857578602306164    0.3447480443666843 Nb
   0.9301114133248527    0.8857578602306162    0.3447480443666843 Nb
   0.0636099179948692    0.9862173664532928    0.2065134900768984 Nb
   0.1969432513282026    0.0862173664532929    0.2065134900768984 Nb
   0.3969432513282026    0.9862173664532928    0.2065134900768984 Nb
   0.1302765846615359    0.2862173664532928    0.2065134900768984 Nb
   0.3302765846615360    0.1862173664532928    0.2065134900768984 Nb
   0.5302765846615360    0.0862173664532928    0.2065134900768984 Nb
   0.7302765846615360    0.9862173664532928    0.2065134900768984 Nb
   0.0636099179948692    0.4862173664532929    0.2065134900768984 Nb
   0.2636099179948692    0.3862173664532928    0.2065134900768984 Nb
   0.4636099179948691    0.2862173664532928    0.2065134900768984 Nb
   0.6636099179948696    0.1862173664532928    0.2065134900768984 Nb
   0.8636099179948693    0.0862173664532928    0.2065134900768984 Nb
   0.1969432513282026    0.5862173664532928    0.2065134900768984 Nb
   0.3969432513282024    0.4862173664532928    0.2065134900768984 Nb
   0.5969432513282028    0.3862173664532928    0.2065134900768984 Nb
   0.7969432513282025    0.2862173664532928    0.2065134900768984 Nb
   0.9969432513282026    0.1862173664532928    0.2065134900768984 Nb
   0.1302765846615358    0.7862173664532927    0.2065134900768984 Nb
   0.3302765846615360    0.6862173664532927    0.2065134900768984 Nb
   0.5302765846615360    0.5862173664532928    0.2065134900768984 Nb
   0.7302765846615357    0.4862173664532928    0.2065134900768984 Nb
   0.9302765846615361    0.3862173664532927    0.2065134900768984 Nb
   0.2636099179948691    0.8862173664532929    0.2065134900768984 Nb
   0.4636099179948693    0.7862173664532928    0.2065134900768984 Nb
   0.6636099179948692    0.6862173664532931    0.2065134900768984 Nb
   0.8636099179948692    0.5862173664532928    0.2065134900768984 Nb
   0.5969432513282026    0.8862173664532929    0.2065134900768984 Nb
   0.7969432513282027    0.7862173664532927    0.2065134900768984 Nb
   0.9969432513282026    0.6862173664532927    0.2065134900768984 Nb
   0.9302765846615358    0.8862173664532926    0.2065134900768984 Nb
   0.6743078747484561    0.1218743416791213    0.7944001694220465 Bi
   0.8171650176055990    0.2647314845362641    0.7944001694220465 Bi
   0.2933554937960752    0.0742552940600737    0.7944001694220465 Bi
   0.4362126366532179    0.2171124369172164    0.7944001694220465 Bi
   0.5790697795103611    0.3599695797743593    0.7944001694220465 Bi
   0.7219269223675036    0.5028267226315021    0.7944001694220465 Bi
   0.8647840652246465    0.6456838654886451    0.7944001694220465 Bi
   0.9124031128436944    0.0266362464410260    0.7944001694220465 Bi
   0.0552602557008371    0.1694933892981690    0.7944001694220465 Bi
   0.1981173985579799    0.3123505321553117    0.7944001694220465 Bi
   0.3409745414151227    0.4552076750124546    0.7944001694220465 Bi
   0.4838316842722655    0.5980648178695975    0.7944001694220465 Bi
   0.6266888271294084    0.7409219607267403    0.7944001694220465 Bi
   0.7695459699865514    0.8837791035838830    0.7944001694220465 Bi
   0.9600221604627419    0.4075886273934069    0.7944001694220465 Bi
   0.1028793033198848    0.5504457702505499    0.7944001694220465 Bi
   0.2457364461770275    0.6933029131076927    0.7944001694220465 Bi
   0.3885935890341702    0.8361600559648356    0.7944001694220465 Bi
   0.5314507318913133    0.9790171988219785    0.7944001694220465 Bi
   0.0076412080817895    0.7885410083457879    0.7944001694220465 Bi
   0.1504983509389323    0.9313981512029308    0.7944001694220465 Bi
   0.5492426130519852    0.1047390455626315    0.7047369577364245 Bi
   0.6920997559091281    0.2475961884197742    0.7047369577364245 Bi
   0.1682902320996041    0.0571199979435839    0.7047369577364245 Bi
   0.3111473749567468    0.1999771408007267    0.7047369577364245 Bi
   0.4540045178138896    0.3428342836578696    0.7047369577364245 Bi
   0.5968616606710326    0.4856914265150126    0.7047369577364245 Bi
   0.7397188035281754    0.6285485693721555    0.7047369577364245 Bi
   0.7873378511472231    0.0095009503245363    0.7047369577364245 Bi
   0.9301949940043662    0.1523580931816791    0.7047369577364245 Bi
   0.0730521368615088    0.2952152360388220    0.7047369577364245 Bi
   0.2159092797186518    0.4380723788959648    0.7047369577364245 Bi
   0.3587664225757945    0.5809295217531076    0.7047369577364245 Bi
   0.5016235654329374    0.7237866646102504    0.7047369577364245 Bi
   0.6444807082900799    0.8666438074673934    0.7047369577364245 Bi
   0.8349568987662708    0.3904533312769173    0.7047369577364245 Bi
   0.9778140416234136    0.5333104741340600    0.7047369577364245 Bi
   0.1206711844805564    0.6761676169912029    0.7047369577364245 Bi
   0.2635283273376993    0.8190247598483458    0.7047369577364245 Bi
   0.4063854701948423    0.9618819027054886    0.7047369577364245 Bi
   0.8825759463853184    0.7714057122292982    0.7047369577364245 Bi
   0.0254330892424612    0.9142628550864409    0.7047369577364245 Bi
   0.5498252839716337    0.1008758643445358    0.5688586317166681 Bi
   0.6926824268287763    0.2437330072016787    0.5688586317166681 Bi
   0.1688729030192526    0.0532568167254883    0.5688586317166681 Bi
   0.3117300458763954    0.1961139595826312    0.5688586317166681 Bi
   0.4545871887335383    0.3389711024397740    0.5688586317166681 Bi
   0.5974443315906811    0.4818282452969169    0.5688586317166681 Bi
   0.7403014744478239    0.6246853881540597    0.5688586317166681 Bi
   0.7879205220668719    0.0056377691064406    0.5688586317166681 Bi
   0.9307776649240146    0.1484949119635834    0.5688586317166681 Bi
   0.0736348077811574    0.2913520548207263    0.5688586317166681 Bi
   0.2164919506383002    0.4342091976778692    0.5688586317166681 Bi
   0.3593490934954431    0.5770663405350122    0.5688586317166681 Bi
   0.5022062363525859    0.7199234833921547    0.5688586317166681 Bi
   0.6450633792097286    0.8627806262492980    0.5688586317166682 Bi
   0.8355395696859191    0.3865901500588215    0.5688586317166681 Bi
   0.9783967125430622    0.5294472929159644    0.5688586317166681 Bi
   0.1212538554002049    0.6723044357731073    0.5688586317166681 Bi
   0.2641109982573479    0.8151615786302502    0.5688586317166681 Bi
   0.4069681411144908    0.9580187214873929    0.5688586317166681 Bi
   0.8831586173049670    0.7675425310112027    0.5688586317166682 Bi
   0.0260157601621097    0.9103996738683452    0.5688586317166681 Bi
   0.8049638229297074    0.1326693229560024    0.4795310425214356 Bi
   0.9478209657868503    0.2755264658131453    0.4795310425214355 Bi
   0.4240114419773264    0.0850502753369548    0.4795310425214356 Bi
   0.5668685848344692    0.2279074181940975    0.4795310425214356 Bi
   0.7097257276916120    0.3707645610512405    0.4795310425214356 Bi
   0.8525828705487549    0.5136217039083831    0.4795310425214355 Bi
   0.9954400134058978    0.6564788467655264    0.4795310425214356 Bi
   0.0430590610249455    0.0374312277179072    0.4795310425214356 Bi
   0.1859162038820884    0.1802883705750500    0.4795310425214356 Bi
   0.3287733467392311    0.3231455134321929    0.4795310425214356 Bi
   0.4716304895963741    0.4660026562893358    0.4795310425214356 Bi
   0.6144876324535168    0.6088597991464785    0.4795310425214355 Bi
   0.7573447753106600    0.7517169420036213    0.4795310425214356 Bi
   0.9002019181678024    0.8945740848607643    0.4795310425214356 Bi
   0.0906781086439931    0.4183836086702882    0.4795310425214356 Bi
   0.2335352515011359    0.5612407515274310    0.4795310425214356 Bi
   0.3763923943582788    0.7040978943845737    0.4795310425214356 Bi
   0.5192495372154217    0.8469550372417168    0.4795310425214355 Bi
   0.6621066800725646    0.9898121800988594    0.4795310425214356 Bi
   0.1382971562630407    0.7993359896226691    0.4795310425214356 Bi
   0.2811542991201836    0.9421931324798118    0.4795310425214356 Bi
   0.9524773339290183    0.9862476940228846    0.1686817922364798 Se
   0.0858106672623518    0.0862476940228846    0.1686817922364798 Se
   0.2858106672623518    0.9862476940228846    0.1686817922364798 Se
   0.0191440005956851    0.2862476940228845    0.1686817922364798 Se
   0.2191440005956851    0.1862476940228845    0.1686817922364798 Se
   0.4191440005956850    0.0862476940228845    0.1686817922364798 Se
   0.6191440005956853    0.9862476940228846    0.1686817922364797 Se
   0.9524773339290183    0.4862476940228847    0.1686817922364798 Se
   0.1524773339290184    0.3862476940228845    0.1686817922364798 Se
   0.3524773339290183    0.2862476940228845    0.1686817922364797 Se
   0.5524773339290184    0.1862476940228845    0.1686817922364798 Se
   0.7524773339290185    0.0862476940228845    0.1686817922364798 Se
   0.0858106672623517    0.5862476940228845    0.1686817922364798 Se
   0.2858106672623516    0.4862476940228845    0.1686817922364798 Se
   0.4858106672623518    0.3862476940228845    0.1686817922364798 Se
   0.6858106672623517    0.2862476940228845    0.1686817922364798 Se
   0.8858106672623518    0.1862476940228845    0.1686817922364798 Se
   0.0191440005956851    0.7862476940228844    0.1686817922364798 Se
   0.2191440005956848    0.6862476940228844    0.1686817922364798 Se
   0.4191440005956850    0.5862476940228845    0.1686817922364798 Se
   0.6191440005956851    0.4862476940228845    0.1686817922364798 Se
   0.8191440005956853    0.3862476940228845    0.1686817922364798 Se
   0.1524773339290182    0.8862476940228844    0.1686817922364798 Se
   0.3524773339290184    0.7862476940228845    0.1686817922364798 Se
   0.5524773339290183    0.6862476940228845    0.1686817922364798 Se
   0.7524773339290186    0.5862476940228845    0.1686817922364798 Se
   0.4858106672623518    0.8862476940228844    0.1686817922364798 Se
   0.6858106672623518    0.7862476940228844    0.1686817922364798 Se
   0.8858106672623514    0.6862476940228844    0.1686817922364798 Se
   0.8191440005956847    0.8862476940228844    0.1686817922364797 Se
   0.0412084640402390    0.8857712153616651    0.3069115334886654 Se
   0.1745417973735724    0.9857712153616650    0.3069115334886653 Se
   0.3745417973735724    0.8857712153616649    0.3069115334886653 Se
   0.1078751307069057    0.1857712153616650    0.3069115334886653 Se
   0.3078751307069057    0.0857712153616650    0.3069115334886653 Se
   0.5078751307069057    0.9857712153616650    0.3069115334886653 Se
   0.7078751307069059    0.8857712153616649    0.3069115334886653 Se
   0.0412084640402390    0.3857712153616650    0.3069115334886653 Se
   0.2412084640402390    0.2857712153616650    0.3069115334886653 Se
   0.4412084640402388    0.1857712153616650    0.3069115334886653 Se
   0.6412084640402391    0.0857712153616650    0.3069115334886654 Se
   0.8412084640402391    0.9857712153616650    0.3069115334886654 Se
   0.1745417973735724    0.4857712153616649    0.3069115334886653 Se
   0.3745417973735723    0.3857712153616649    0.3069115334886654 Se
   0.5745417973735724    0.2857712153616649    0.3069115334886654 Se
   0.7745417973735722    0.1857712153616650    0.3069115334886654 Se
   0.9745417973735724    0.0857712153616649    0.3069115334886653 Se
   0.1078751307069057    0.6857712153616649    0.3069115334886654 Se
   0.3078751307069056    0.5857712153616649    0.3069115334886654 Se
   0.5078751307069058    0.4857712153616649    0.3069115334886654 Se
   0.7078751307069056    0.3857712153616649    0.3069115334886654 Se
   0.9078751307069057    0.2857712153616649    0.3069115334886653 Se
   0.2412084640402388    0.7857712153616649    0.3069115334886654 Se
   0.4412084640402392    0.6857712153616650    0.3069115334886653 Se
   0.6412084640402393    0.5857712153616650    0.3069115334886653 Se
   0.8412084640402392    0.4857712153616649    0.3069115334886653 Se
   0.5745417973735720    0.7857712153616649    0.3069115334886653 Se
   0.7745417973735725    0.6857712153616649    0.3069115334886653 Se
   0.9745417973735726    0.5857712153616649    0.3069115334886653 Se
   0.9078751307069055    0.7857712153616648    0.3069115334886653 Se
   0.9524836204368583    0.9861872436138939    0.2443510399711945 Se
   0.0858169537701917    0.0861872436138938    0.2443510399711945 Se
   0.2858169537701916    0.9861872436138938    0.2443510399711945 Se
   0.0191502871035249    0.2861872436138939    0.2443510399711945 Se
   0.2191502871035249    0.1861872436138938    0.2443510399711945 Se
   0.4191502871035250    0.0861872436138938    0.2443510399711945 Se
   0.6191502871035248    0.9861872436138938    0.2443510399711945 Se
   0.9524836204368583    0.4861872436138938    0.2443510399711945 Se
   0.1524836204368582    0.3861872436138938    0.2443510399711945 Se
   0.3524836204368582    0.2861872436138939    0.2443510399711945 Se
   0.5524836204368585    0.1861872436138938    0.2443510399711945 Se
   0.7524836204368585    0.0861872436138938    0.2443510399711945 Se
   0.0858169537701916    0.5861872436138937    0.2443510399711945 Se
   0.2858169537701915    0.4861872436138938    0.2443510399711945 Se
   0.4858169537701918    0.3861872436138937    0.2443510399711945 Se
   0.6858169537701917    0.2861872436138939    0.2443510399711945 Se
   0.8858169537701913    0.1861872436138937    0.2443510399711945 Se
   0.0191502871035248    0.7861872436138937    0.2443510399711945 Se
   0.2191502871035249    0.6861872436138936    0.2443510399711945 Se
   0.4191502871035249    0.5861872436138937    0.2443510399711945 Se
   0.6191502871035250    0.4861872436138938    0.2443510399711945 Se
   0.8191502871035248    0.3861872436138937    0.2443510399711945 Se
   0.1524836204368583    0.8861872436138938    0.2443510399711945 Se
   0.3524836204368582    0.7861872436138937    0.2443510399711945 Se
   0.5524836204368584    0.6861872436138938    0.2443510399711945 Se
   0.7524836204368582    0.5861872436138937    0.2443510399711945 Se
   0.4858169537701918    0.8861872436138938    0.2443510399711945 Se
   0.6858169537701913    0.7861872436138937    0.2443510399711945 Se
   0.8858169537701918    0.6861872436138936    0.2443510399711945 Se
   0.8191502871035252    0.8861872436138936    0.2443510399711945 Se
   0.0412250432802242    0.8857102485436807    0.3825808312104175 Se
   0.1745583766135576    0.9857102485436807    0.3825808312104175 Se
   0.3745583766135577    0.8857102485436807    0.3825808312104175 Se
   0.1078917099468909    0.1857102485436807    0.3825808312104175 Se
   0.3078917099468910    0.0857102485436807    0.3825808312104175 Se
   0.5078917099468908    0.9857102485436807    0.3825808312104175 Se
   0.7078917099468911    0.8857102485436807    0.3825808312104176 Se
   0.0412250432802243    0.3857102485436807    0.3825808312104175 Se
   0.2412250432802243    0.2857102485436807    0.3825808312104175 Se
   0.4412250432802244    0.1857102485436807    0.3825808312104175 Se
   0.6412250432802246    0.0857102485436807    0.3825808312104175 Se
   0.8412250432802244    0.9857102485436807    0.3825808312104175 Se
   0.1745583766135577    0.4857102485436806    0.3825808312104175 Se
   0.3745583766135576    0.3857102485436806    0.3825808312104175 Se
   0.5745583766135578    0.2857102485436807    0.3825808312104175 Se
   0.7745583766135576    0.1857102485436807    0.3825808312104175 Se
   0.9745583766135577    0.0857102485436807    0.3825808312104175 Se
   0.1078917099468910    0.6857102485436806    0.3825808312104175 Se
   0.3078917099468910    0.5857102485436805    0.3825808312104175 Se
   0.5078917099468911    0.4857102485436806    0.3825808312104175 Se
   0.7078917099468908    0.3857102485436806    0.3825808312104175 Se
   0.9078917099468909    0.2857102485436806    0.3825808312104175 Se
   0.2412250432802243    0.7857102485436807    0.3825808312104175 Se
   0.4412250432802243    0.6857102485436807    0.3825808312104175 Se
   0.6412250432802243    0.5857102485436807    0.3825808312104175 Se
   0.8412250432802244    0.4857102485436806    0.3825808312104175 Se
   0.5745583766135576    0.7857102485436807    0.3825808312104175 Se
   0.7745583766135578    0.6857102485436806    0.3825808312104175 Se
   0.9745583766135575    0.5857102485436805    0.3825808312104175 Se
   0.9078917099468907    0.7857102485436805    0.3825808312104176 Se
   0.5466978150564700    0.1058938899467294    0.8313182077635204 Se
   0.6895549579136129    0.2487510328038723    0.8313182077635204 Se
   0.1657454341040890    0.0582748423276819    0.8313182077635204 Se
   0.3086025769612318    0.2011319851848246    0.8313182077635204 Se
   0.4514597198183746    0.3439891280419675    0.8313182077635204 Se
   0.5943168626755175    0.4868462708991103    0.8313182077635204 Se
   0.7371740055326603    0.6297034137562532    0.8313182077635204 Se
   0.7847930531517080    0.0106557947086342    0.8313182077635204 Se
   0.9276501960088508    0.1535129375657772    0.8313182077635204 Se
   0.0705073388659937    0.2963700804229198    0.8313182077635204 Se
   0.2133644817231365    0.4392272232800627    0.8313182077635204 Se
   0.3562216245802794    0.5820843661372055    0.8313182077635204 Se
   0.4990787674374223    0.7249415089943484    0.8313182077635204 Se
   0.6419359102945650    0.8677986518514912    0.8313182077635204 Se
   0.8324121007707556    0.3916081756610151    0.8313182077635204 Se
   0.9752692436278985    0.5344653185181582    0.8313182077635204 Se
   0.1181263864850414    0.6773224613753007    0.8313182077635204 Se
   0.2609835293421841    0.8201796042324436    0.8313182077635204 Se
   0.4038406721993272    0.9630367470895863    0.8313182077635204 Se
   0.8800311483898032    0.7725605566133961    0.8313182077635204 Se
   0.0228882912469461    0.9154176994705389    0.8313182077635204 Se
   0.8027481439453266    0.1375444859032735    0.7495056388254160 Se
   0.9456052868024694    0.2804016287604163    0.7495056388254160 Se
   0.4217957629929455    0.0899254382842258    0.7495056388254160 Se
   0.5646529058500885    0.2327825811413687    0.7495056388254160 Se
   0.7075100487072314    0.3756397239985115    0.7495056388254160 Se
   0.8503671915643741    0.5184968668556542    0.7495056388254160 Se
   0.9932243344215168    0.6613540097127972    0.7495056388254160 Se
   0.0408433820405646    0.0423063906651782    0.7495056388254160 Se
   0.1837005248977075    0.1851635335223210    0.7495056388254160 Se
   0.3265576677548503    0.3280206763794639    0.7495056388254160 Se
   0.4694148106119930    0.4708778192366068    0.7495056388254160 Se
   0.6122719534691358    0.6137349620937496    0.7495056388254160 Se
   0.7551290963262789    0.7565921049508924    0.7495056388254160 Se
   0.8979862391834215    0.8994492478080354    0.7495056388254160 Se
   0.0884624296596122    0.4232587716175591    0.7495056388254160 Se
   0.2313195725167550    0.5661159144747021    0.7495056388254160 Se
   0.3741767153738979    0.7089730573318448    0.7495056388254160 Se
   0.5170338582310409    0.8518302001889881    0.7495056388254160 Se
   0.6598910010881838    0.9946873430461304    0.7495056388254160 Se
   0.1360814772786599    0.8042111525699400    0.7495056388254160 Se
   0.2789386201358027    0.9470682954270828    0.7495056388254160 Se
   0.6754621020712412    0.1211041024678143    0.6677845033197066 Se
   0.8183192449283839    0.2639612453249572    0.6677845033197066 Se
   0.2945097211188603    0.0734850548487667    0.6677845033197066 Se
   0.4373668639760028    0.2163421977059096    0.6677845033197066 Se
   0.5802240068331459    0.3591993405630525    0.6677845033197066 Se
   0.7230811496902888    0.5020564834201952    0.6677845033197066 Se
   0.8659382925474315    0.6449136262773382    0.6677845033197067 Se
   0.9135573401664792    0.0258660072297192    0.6677845033197066 Se
   0.0564144830236221    0.1687231500868620    0.6677845033197066 Se
   0.1992716258807649    0.3115802929440049    0.6677845033197066 Se
   0.3421287687379077    0.4544374358011478    0.6677845033197066 Se
   0.4849859115950506    0.5972945786582906    0.6677845033197066 Se
   0.6278430544521933    0.7401517215154334    0.6677845033197066 Se
   0.7707001973093361    0.8830088643725763    0.6677845033197067 Se
   0.9611763877855268    0.4068183881821001    0.6677845033197066 Se
   0.1040335306426697    0.5496755310392429    0.6677845033197066 Se
   0.2468906734998125    0.6925326738963858    0.6677845033197066 Se
   0.3897478163569554    0.8353898167535287    0.6677845033197066 Se
   0.5326049592140983    0.9782469596106714    0.6677845033197066 Se
   0.0087954354045744    0.7877707691344811    0.6677845033197066 Se
   0.1516525782617173    0.9306279119916238    0.6677845033197066 Se
   0.8049390942847872    0.1329041150060466    0.6055580957863087 Se
   0.9477962371419303    0.2757612578631895    0.6055580957863087 Se
   0.4239867133324062    0.0852850673869991    0.6055580957863087 Se
   0.5668438561895492    0.2281422102441418    0.6055580957863087 Se
   0.7097009990466921    0.3709993531012848    0.6055580957863087 Se
   0.8525581419038349    0.5138564959584275    0.6055580957863087 Se
   0.9954152847609776    0.6567136388155705    0.6055580957863087 Se
   0.0430343323800253    0.0376660197679515    0.6055580957863087 Se
   0.1858914752371681    0.1805231626250944    0.6055580957863087 Se
   0.3287486180943110    0.3233803054822371    0.6055580957863087 Se
   0.4716057609514540    0.4662374483393801    0.6055580957863087 Se
   0.6144629038085967    0.6090945911965229    0.6055580957863087 Se
   0.7573200466657395    0.7519517340536656    0.6055580957863087 Se
   0.9001771895228822    0.8948088769108087    0.6055580957863087 Se
   0.0906533799990729    0.4186184007203322    0.6055580957863087 Se
   0.2335105228562158    0.5614755435774753    0.6055580957863087 Se
   0.3763676657133587    0.7043326864346182    0.6055580957863087 Se
   0.5192248085705016    0.8471898292917608    0.6055580957863087 Se
   0.6620819514276444    0.9900469721489037    0.6055580957863087 Se
   0.1382724276181205    0.7995707816727136    0.6055580957863087 Se
   0.2811295704752633    0.9424279245298561    0.6055580957863087 Se
   0.6772167607404581    0.1164197264129457    0.5241890951556734 Se
   0.8200739035976010    0.2592768692700885    0.5241890951556734 Se
   0.2962643797880771    0.0688006787938981    0.5241890951556734 Se
   0.4391215226452199    0.2116578216510409    0.5241890951556734 Se
   0.5819786655023627    0.3545149645081839    0.5241890951556734 Se
   0.7248358083595058    0.4973721073653265    0.5241890951556734 Se
   0.8676929512166484    0.6402292502224695    0.5241890951556734 Se
   0.9153119988356961    0.0211816311748504    0.5241890951556734 Se
   0.0581691416928390    0.1640387740319932    0.5241890951556734 Se
   0.2010262845499818    0.3068959168891362    0.5241890951556734 Se
   0.3438834274071246    0.4497530597462791    0.5241890951556734 Se
   0.4867405702642675    0.5926102026034217    0.5241890951556734 Se
   0.6295977131214106    0.7354673454605647    0.5241890951556734 Se
   0.7724548559785531    0.8783244883177077    0.5241890951556734 Se
   0.9629310464547438    0.4021340121272315    0.5241890951556734 Se
   0.1057881893118866    0.5449911549843742    0.5241890951556734 Se
   0.2486453321690295    0.6878482978415171    0.5241890951556734 Se
   0.3915024750261724    0.8307054406986600    0.5241890951556734 Se
   0.5343596178833152    0.9735625835558027    0.5241890951556734 Se
   0.0105500940737914    0.7830863930796124    0.5241890951556734 Se
   0.1534072369309342    0.9259435359367552    0.5241890951556734 Se
   0.5494320663883041    0.1007945556301376    0.4427015086099987 Se
   0.6922892092454469    0.2436516984872805    0.4427015086099987 Se
   0.1684796854359231    0.0531755080110901    0.4427015086099987 Se
   0.3113368282930659    0.1960326508682329    0.4427015086099987 Se
   0.4541939711502088    0.3388897937253758    0.4427015086099987 Se
   0.5970511140073517    0.4817469365825186    0.4427015086099987 Se
   0.7399082568644946    0.6246040794396613    0.4427015086099987 Se
   0.7875273044835420    0.0055564603920424    0.4427015086099987 Se
   0.9303844473406850    0.1484136032491853    0.4427015086099987 Se
   0.0732415901978278    0.2912707461063281    0.4427015086099987 Se
   0.2160987330549707    0.4341278889634711    0.4427015086099987 Se
   0.3589558759121134    0.5769850318206140    0.4427015086099987 Se
   0.5018130187692564    0.7198421746777564    0.4427015086099987 Se
   0.6446701616263992    0.8626993175348995    0.4427015086099987 Se
   0.8351463521025897    0.3865088413444234    0.4427015086099987 Se
   0.9780034949597326    0.5293659842015663    0.4427015086099987 Se
   0.1208606378168754    0.6722231270587091    0.4427015086099987 Se
   0.2637177806740184    0.8150802699158519    0.4427015086099987 Se
   0.4065749235311613    0.9579374127729947    0.4427015086099987 Se
   0.8827653997216369    0.7674612222968045    0.4427015086099987 Se
   0.0256225425787803    0.9103183651539468    0.4427015086099987 Se
