Nb132 Bi180 Se534
1.0
  21.0680785730227882    0.0000000000000000    0.0000000000000013
   5.6940752880558856   32.5460114238315228    0.0000000000000020
   0.0000000000000000    0.0000000000000000   49.9893053307188922
Nb Bi Se
132 180 534
direct
   0.0400097819715915    0.9977877556798962    0.3566429020965913 Nb
   0.1763734183352278    0.0432423011344416    0.3566429020965913 Nb
   0.1612219031837127    0.1493029071950477    0.3566429020965913 Nb
   0.1460703880321975    0.2553635132556538    0.3566429020965913 Nb
   0.1309188728806824    0.3614241193162598    0.3566429020965913 Nb
   0.1157673577291673    0.4674847253768660    0.3566429020965913 Nb
   0.1006158425776522    0.5735453314374721    0.3566429020965913 Nb
   0.0854643274261370    0.6796059374980783    0.3566429020965913 Nb
   0.0703128122746219    0.7856665435586841    0.3566429020965913 Nb
   0.0551612971231068    0.8917271496192902    0.3566429020965913 Nb
   0.3127370546988643    0.0886968465889871    0.3566429020965913 Nb
   0.2975855395473491    0.1947574526495932    0.3566429020965913 Nb
   0.2824340243958339    0.3008180587101992    0.3566429020965913 Nb
   0.2672825092443187    0.4068786647708054    0.3566429020965913 Nb
   0.2521309940928036    0.5129392708314113    0.3566429020965913 Nb
   0.2369794789412884    0.6189998768920174    0.3566429020965913 Nb
   0.2218279637897734    0.7250604829526235    0.3566429020965913 Nb
   0.2066764486382582    0.8311210890132296    0.3566429020965913 Nb
   0.1915249334867431    0.9371816950738356    0.3566429020965913 Nb
   0.4642522062140156    0.0280907859829264    0.3566429020965913 Nb
   0.4491006910625006    0.1341513920435325    0.3566429020965913 Nb
   0.4339491759109854    0.2402119981041386    0.3566429020965913 Nb
   0.4187976607594703    0.3462726041647448    0.3566429020965913 Nb
   0.4036461456079550    0.4523332102253507    0.3566429020965913 Nb
   0.3884946304564399    0.5583938162859570    0.3566429020965913 Nb
   0.3733431153049249    0.6644544223465630    0.3566429020965913 Nb
   0.3581916001534098    0.7705150284071690    0.3566429020965913 Nb
   0.3430400850018948    0.8765756344677752    0.3566429020965913 Nb
   0.3278885698503794    0.9826362405283813    0.3566429020965913 Nb
   0.6006158425776521    0.0735453314374719    0.3566429020965913 Nb
   0.5854643274261370    0.1796059374980780    0.3566429020965913 Nb
   0.5703128122746216    0.2856665435586841    0.3566429020965913 Nb
   0.5551612971231065    0.3917271496192902    0.3566429020965913 Nb
   0.5400097819715914    0.4977877556798962    0.3566429020965913 Nb
   0.5248582668200763    0.6038483617405023    0.3566429020965913 Nb
   0.5097067516685613    0.7099089678011083    0.3566429020965913 Nb
   0.4945552365170461    0.8159695738617144    0.3566429020965913 Nb
   0.4794037213655309    0.9220301799223206    0.3566429020965913 Nb
   0.7521309940928037    0.0129392708314113    0.3566429020965913 Nb
   0.7369794789412881    0.1189998768920174    0.3566429020965913 Nb
   0.7218279637897733    0.2250604829526234    0.3566429020965913 Nb
   0.7066764486382581    0.3311210890132296    0.3566429020965913 Nb
   0.6915249334867428    0.4371816950738356    0.3566429020965913 Nb
   0.6763734183352279    0.5432423011344416    0.3566429020965913 Nb
   0.6612219031837129    0.6493029071950479    0.3566429020965913 Nb
   0.6460703880321976    0.7553635132556540    0.3566429020965913 Nb
   0.6309188728806827    0.8614241193162600    0.3566429020965913 Nb
   0.6157673577291674    0.9674847253768659    0.3566429020965913 Nb
   0.8884946304564399    0.0583938162859567    0.3566429020965913 Nb
   0.8733431153049245    0.1644544223465629    0.3566429020965913 Nb
   0.8581916001534096    0.2705150284071689    0.3566429020965913 Nb
   0.8430400850018944    0.3765756344677749    0.3566429020965913 Nb
   0.8278885698503793    0.4826362405283810    0.3566429020965913 Nb
   0.8127370546988644    0.5886968465889871    0.3566429020965913 Nb
   0.7975855395473491    0.6947574526495932    0.3566429020965913 Nb
   0.7824340243958340    0.8008180587101994    0.3566429020965913 Nb
   0.7672825092443190    0.9068786647708056    0.3566429020965913 Nb
   0.0248582668200763    0.1038483617405023    0.3566429020965913 Nb
   0.0097067516685611    0.2099089678011083    0.3566429020965913 Nb
   0.9945552365170460    0.3159695738617144    0.3566429020965913 Nb
   0.9794037213655309    0.4220301799223204    0.3566429020965913 Nb
   0.9642522062140160    0.5280907859829265    0.3566429020965913 Nb
   0.9491006910625008    0.6341513920435325    0.3566429020965913 Nb
   0.9339491759109857    0.7402119981041387    0.3566429020965913 Nb
   0.9187976607594706    0.8462726041647449    0.3566429020965913 Nb
   0.9036461456079551    0.9523332102253509    0.3566429020965913 Nb
   0.0404736527745556    0.9977932114052558    0.2336917587878817 Nb
   0.1768372891381920    0.0432477568598012    0.2336917587878817 Nb
   0.1616857739866769    0.1493083629204073    0.2336917587878817 Nb
   0.1465342588351617    0.2553689689810134    0.2336917587878817 Nb
   0.1313827436836466    0.3614295750416195    0.2336917587878817 Nb
   0.1162312285321315    0.4674901811022255    0.2336917587878817 Nb
   0.1010797133806163    0.5735507871628317    0.2336917587878817 Nb
   0.0859281982291012    0.6796113932234378    0.2336917587878817 Nb
   0.0707766830775862    0.7856719992840437    0.2336917587878817 Nb
   0.0556251679260709    0.8917326053446499    0.2336917587878817 Nb
   0.3132009255018283    0.0887023023143467    0.2336917587878817 Nb
   0.2980494103503132    0.1947629083749528    0.2336917587878817 Nb
   0.2828978951987980    0.3008235144355588    0.2336917587878817 Nb
   0.2677463800472829    0.4068841204961649    0.2336917587878817 Nb
   0.2525948648957679    0.5129447265567710    0.2336917587878817 Nb
   0.2374433497442527    0.6190053326173772    0.2336917587878817 Nb
   0.2222918345927376    0.7250659386779832    0.2336917587878817 Nb
   0.2071403194412224    0.8311265447385893    0.2336917587878817 Nb
   0.1919888042897072    0.9371871507991952    0.2336917587878817 Nb
   0.4647160770169798    0.0280962417082861    0.2336917587878817 Nb
   0.4495645618654647    0.1341568477688922    0.2336917587878817 Nb
   0.4344130467139495    0.2402174538294983    0.2336917587878817 Nb
   0.4192615315624344    0.3462780598901043    0.2336917587878817 Nb
   0.4041100164109192    0.4523386659507104    0.2336917587878817 Nb
   0.3889585012594041    0.5583992720113164    0.2336917587878817 Nb
   0.3738069861078890    0.6644598780719225    0.2336917587878817 Nb
   0.3586554709563740    0.7705204841325287    0.2336917587878817 Nb
   0.3435039558048587    0.8765810901931346    0.2336917587878817 Nb
   0.3283524406533435    0.9826416962537408    0.2336917587878817 Nb
   0.6010797133806163    0.0735507871628315    0.2336917587878817 Nb
   0.5859281982291010    0.1796113932234377    0.2336917587878817 Nb
   0.5707766830775859    0.2856719992840437    0.2336917587878817 Nb
   0.5556251679260708    0.3917326053446498    0.2336917587878817 Nb
   0.5404736527745555    0.4977932114052559    0.2336917587878817 Nb
   0.5253221376230406    0.6038538174658620    0.2336917587878817 Nb
   0.5101706224715252    0.7099144235264682    0.2336917587878817 Nb
   0.4950191073200103    0.8159750295870740    0.2336917587878817 Nb
   0.4798675921684951    0.9220356356476802    0.2336917587878817 Nb
   0.7525948648957679    0.0129447265567709    0.2336917587878817 Nb
   0.7374433497442526    0.1190053326173770    0.2336917587878817 Nb
   0.7222918345927374    0.2250659386779831    0.2336917587878817 Nb
   0.7071403194412222    0.3311265447385892    0.2336917587878817 Nb
   0.6919888042897072    0.4371871507991953    0.2336917587878817 Nb
   0.6768372891381920    0.5432477568598012    0.2336917587878817 Nb
   0.6616857739866771    0.6493083629204074    0.2336917587878817 Nb
   0.6465342588351616    0.7553689689810134    0.2336917587878817 Nb
   0.6313827436836467    0.8614295750416195    0.2336917587878817 Nb
   0.6162312285321314    0.9674901811022256    0.2336917587878817 Nb
   0.8889585012594042    0.0583992720113163    0.2336917587878817 Nb
   0.8738069861078889    0.1644598780719225    0.2336917587878817 Nb
   0.8586554709563736    0.2705204841325285    0.2336917587878817 Nb
   0.8435039558048587    0.3765810901931346    0.2336917587878817 Nb
   0.8283524406533433    0.4826416962537408    0.2336917587878817 Nb
   0.8132009255018285    0.5887023023143468    0.2336917587878817 Nb
   0.7980494103503133    0.6947629083749528    0.2336917587878817 Nb
   0.7828978951987984    0.8008235144355591    0.2336917587878817 Nb
   0.7677463800472828    0.9068841204961650    0.2336917587878817 Nb
   0.0253221376230403    0.1038538174658619    0.2336917587878817 Nb
   0.0101706224715254    0.2099144235264680    0.2336917587878817 Nb
   0.9950191073200100    0.3159750295870740    0.2336917587878817 Nb
   0.9798675921684952    0.4220356356476801    0.2336917587878817 Nb
   0.9647160770169800    0.5280962417082862    0.2336917587878817 Nb
   0.9495645618654649    0.6341568477688921    0.2336917587878817 Nb
   0.9344130467139498    0.7402174538294982    0.2336917587878817 Nb
   0.9192615315624344    0.8462780598901043    0.2336917587878817 Nb
   0.9041100164109194    0.9523386659507105    0.2336917587878817 Nb
   0.8475346682658546    0.7361212205311233    0.7671208852038272 Bi
   0.6475346682658548    0.7361212205311233    0.7671208852038272 Bi
   0.7808680015991881    0.6250101094200121    0.7671208852038272 Bi
   0.4475346682658549    0.7361212205311233    0.7671208852038272 Bi
   0.5808680015991881    0.6250101094200121    0.7671208852038272 Bi
   0.7142013349325215    0.5138989983089012    0.7671208852038272 Bi
   0.8475346682658550    0.4027878871977899    0.7671208852038272 Bi
   0.2475346682658549    0.7361212205311233    0.7671208852038272 Bi
   0.3808680015991882    0.6250101094200121    0.7671208852038272 Bi
   0.5142013349325216    0.5138989983089012    0.7671208852038272 Bi
   0.6475346682658549    0.4027878871977899    0.7671208852038272 Bi
   0.7808680015991885    0.2916767760866789    0.7671208852038272 Bi
   0.0475346682658549    0.7361212205311233    0.7671208852038272 Bi
   0.1808680015991882    0.6250101094200121    0.7671208852038272 Bi
   0.3142013349325216    0.5138989983089012    0.7671208852038272 Bi
   0.4475346682658553    0.4027878871977899    0.7671208852038272 Bi
   0.5808680015991885    0.2916767760866789    0.7671208852038272 Bi
   0.7142013349325218    0.1805656649755676    0.7671208852038272 Bi
   0.8475346682658551    0.0694545538644565    0.7671208852038272 Bi
   0.9808680015991881    0.6250101094200121    0.7671208852038272 Bi
   0.1142013349325215    0.5138989983089012    0.7671208852038272 Bi
   0.2475346682658547    0.4027878871977899    0.7671208852038272 Bi
   0.3808680015991880    0.2916767760866789    0.7671208852038272 Bi
   0.5142013349325217    0.1805656649755676    0.7671208852038272 Bi
   0.6475346682658550    0.0694545538644565    0.7671208852038272 Bi
   0.7808680015991883    0.9583434427533454    0.7671208852038272 Bi
   0.9142013349325214    0.5138989983089012    0.7671208852038272 Bi
   0.0475346682658549    0.4027878871977899    0.7671208852038272 Bi
   0.1808680015991881    0.2916767760866789    0.7671208852038272 Bi
   0.3142013349325216    0.1805656649755676    0.7671208852038272 Bi
   0.4475346682658550    0.0694545538644565    0.7671208852038272 Bi
   0.5808680015991884    0.9583434427533454    0.7671208852038272 Bi
   0.7142013349325219    0.8472323316422343    0.7671208852038272 Bi
   0.9808680015991883    0.2916767760866789    0.7671208852038272 Bi
   0.1142013349325217    0.1805656649755676    0.7671208852038272 Bi
   0.2475346682658550    0.0694545538644565    0.7671208852038272 Bi
   0.3808680015991885    0.9583434427533454    0.7671208852038272 Bi
   0.5142013349325220    0.8472323316422343    0.7671208852038272 Bi
   0.9142013349325218    0.1805656649755676    0.7671208852038272 Bi
   0.0475346682658549    0.0694545538644565    0.7671208852038272 Bi
   0.1808680015991883    0.9583434427533454    0.7671208852038272 Bi
   0.3142013349325215    0.8472323316422343    0.7671208852038272 Bi
   0.9808680015991883    0.9583434427533454    0.7671208852038272 Bi
   0.1142013349325216    0.8472323316422343    0.7671208852038272 Bi
   0.9142013349325215    0.8472323316422343    0.7671208852038272 Bi
   0.9380024217211469    0.7734331098617224    0.6873709670584139 Bi
   0.7380024217211468    0.7734331098617224    0.6873709670584139 Bi
   0.8713357550544798    0.6623219987506112    0.6873709670584139 Bi
   0.5380024217211470    0.7734331098617224    0.6873709670584139 Bi
   0.6713357550544802    0.6623219987506112    0.6873709670584139 Bi
   0.8046690883878135    0.5512108876394999    0.6873709670584139 Bi
   0.9380024217211478    0.4400997765283889    0.6873709670584139 Bi
   0.3380024217211471    0.7734331098617224    0.6873709670584139 Bi
   0.4713357550544804    0.6623219987506112    0.6873709670584139 Bi
   0.6046690883878137    0.5512108876394999    0.6873709670584139 Bi
   0.7380024217211474    0.4400997765283889    0.6873709670584139 Bi
   0.8713357550544805    0.3289886654172777    0.6873709670584139 Bi
   0.1380024217211472    0.7734331098617224    0.6873709670584139 Bi
   0.2713357550544805    0.6623219987506112    0.6873709670584139 Bi
   0.4046690883878140    0.5512108876394999    0.6873709670584139 Bi
   0.5380024217211475    0.4400997765283889    0.6873709670584141 Bi
   0.6713357550544806    0.3289886654172777    0.6873709670584141 Bi
   0.8046690883878140    0.2178775543061666    0.6873709670584141 Bi
   0.9380024217211473    0.1067664431950555    0.6873709670584138 Bi
   0.0713357550544803    0.6623219987506112    0.6873709670584138 Bi
   0.2046690883878137    0.5512108876394999    0.6873709670584138 Bi
   0.3380024217211471    0.4400997765283889    0.6873709670584138 Bi
   0.4713357550544806    0.3289886654172777    0.6873709670584138 Bi
   0.6046690883878140    0.2178775543061666    0.6873709670584138 Bi
   0.7380024217211474    0.1067664431950555    0.6873709670584138 Bi
   0.8713357550544808    0.9956553320839443    0.6873709670584138 Bi
   0.0046690883878137    0.5512108876394999    0.6873709670584138 Bi
   0.1380024217211471    0.4400997765283889    0.6873709670584138 Bi
   0.2713357550544806    0.3289886654172777    0.6873709670584138 Bi
   0.4046690883878138    0.2178775543061666    0.6873709670584138 Bi
   0.5380024217211473    0.1067664431950555    0.6873709670584138 Bi
   0.6713357550544810    0.9956553320839443    0.6873709670584138 Bi
   0.8046690883878143    0.8845442209728333    0.6873709670584139 Bi
   0.0713357550544805    0.3289886654172777    0.6873709670584138 Bi
   0.2046690883878138    0.2178775543061666    0.6873709670584138 Bi
   0.3380024217211474    0.1067664431950555    0.6873709670584138 Bi
   0.4713357550544808    0.9956553320839443    0.6873709670584138 Bi
   0.6046690883878140    0.8845442209728333    0.6873709670584139 Bi
   0.0046690883878138    0.2178775543061666    0.6873709670584138 Bi
   0.1380024217211472    0.1067664431950555    0.6873709670584138 Bi
   0.2713357550544805    0.9956553320839443    0.6873709670584138 Bi
   0.4046690883878141    0.8845442209728333    0.6873709670584139 Bi
   0.0713357550544805    0.9956553320839443    0.6873709670584138 Bi
   0.2046690883878138    0.8845442209728333    0.6873709670584139 Bi
   0.0046690883878139    0.8845442209728333    0.6873709670584139 Bi
   0.9382498577703026    0.7754498392229645    0.5665155440360312 Bi
   0.7382498577703029    0.7754498392229645    0.5665155440360312 Bi
   0.8715831911036361    0.6643387281118533    0.5665155440360312 Bi
   0.5382498577703029    0.7754498392229645    0.5665155440360312 Bi
   0.6715831911036360    0.6643387281118533    0.5665155440360312 Bi
   0.8049165244369695    0.5532276170007423    0.5665155440360312 Bi
   0.9382498577703032    0.4421165058896311    0.5665155440360312 Bi
   0.3382498577703028    0.7754498392229645    0.5665155440360312 Bi
   0.4715831911036363    0.6643387281118533    0.5665155440360312 Bi
   0.6049165244369696    0.5532276170007423    0.5665155440360312 Bi
   0.7382498577703032    0.4421165058896311    0.5665155440360312 Bi
   0.8715831911036366    0.3310053947785201    0.5665155440360312 Bi
   0.1382498577703029    0.7754498392229645    0.5665155440360312 Bi
   0.2715831911036362    0.6643387281118533    0.5665155440360312 Bi
   0.4049165244369697    0.5532276170007423    0.5665155440360312 Bi
   0.5382498577703031    0.4421165058896311    0.5665155440360312 Bi
   0.6715831911036364    0.3310053947785201    0.5665155440360312 Bi
   0.8049165244369696    0.2198942836674090    0.5665155440360312 Bi
   0.9382498577703031    0.1087831725562978    0.5665155440360312 Bi
   0.0715831911036361    0.6643387281118533    0.5665155440360312 Bi
   0.2049165244369694    0.5532276170007423    0.5665155440360312 Bi
   0.3382498577703029    0.4421165058896311    0.5665155440360312 Bi
   0.4715831911036362    0.3310053947785201    0.5665155440360312 Bi
   0.6049165244369696    0.2198942836674090    0.5665155440360312 Bi
   0.7382498577703029    0.1087831725562978    0.5665155440360312 Bi
   0.8715831911036367    0.9976720614451867    0.5665155440360312 Bi
   0.0049165244369695    0.5532276170007423    0.5665155440360312 Bi
   0.1382498577703028    0.4421165058896311    0.5665155440360312 Bi
   0.2715831911036362    0.3310053947785201    0.5665155440360312 Bi
   0.4049165244369696    0.2198942836674090    0.5665155440360312 Bi
   0.5382498577703030    0.1087831725562978    0.5665155440360312 Bi
   0.6715831911036365    0.9976720614451867    0.5665155440360312 Bi
   0.8049165244369697    0.8865609503340757    0.5665155440360312 Bi
   0.0715831911036362    0.3310053947785201    0.5665155440360312 Bi
   0.2049165244369696    0.2198942836674090    0.5665155440360312 Bi
   0.3382498577703031    0.1087831725562978    0.5665155440360312 Bi
   0.4715831911036364    0.9976720614451867    0.5665155440360312 Bi
   0.6049165244369696    0.8865609503340757    0.5665155440360312 Bi
   0.0049165244369695    0.2198942836674090    0.5665155440360312 Bi
   0.1382498577703029    0.1087831725562978    0.5665155440360312 Bi
   0.2715831911036362    0.9976720614451867    0.5665155440360312 Bi
   0.4049165244369697    0.8865609503340757    0.5665155440360312 Bi
   0.0715831911036362    0.9976720614451867    0.5665155440360312 Bi
   0.2049165244369696    0.8865609503340757    0.5665155440360312 Bi
   0.0049165244369695    0.8865609503340757    0.5665155440360312 Bi
   0.8281561554413980    0.8122004646703557    0.4870641414761426 Bi
   0.6281561554413979    0.8122004646703557    0.4870641414761426 Bi
   0.7614894887747309    0.7010893535592445    0.4870641414761426 Bi
   0.4281561554413977    0.8122004646703557    0.4870641414761426 Bi
   0.5614894887747310    0.7010893535592445    0.4870641414761426 Bi
   0.6948228221080646    0.5899782424481336    0.4870641414761426 Bi
   0.8281561554413982    0.4788671313370222    0.4870641414761426 Bi
   0.2281561554413978    0.8122004646703557    0.4870641414761426 Bi
   0.3614894887747312    0.7010893535592445    0.4870641414761426 Bi
   0.4948228221080644    0.5899782424481336    0.4870641414761426 Bi
   0.6281561554413980    0.4788671313370222    0.4870641414761426 Bi
   0.7614894887747314    0.3677560202259113    0.4870641414761426 Bi
   0.0281561554413978    0.8122004646703557    0.4870641414761426 Bi
   0.1614894887747312    0.7010893535592445    0.4870641414761426 Bi
   0.2948228221080645    0.5899782424481336    0.4870641414761426 Bi
   0.4281561554413981    0.4788671313370222    0.4870641414761426 Bi
   0.5614894887747316    0.3677560202259113    0.4870641414761426 Bi
   0.6948228221080646    0.2566449091148000    0.4870641414761426 Bi
   0.8281561554413981    0.1455337980036890    0.4870641414761426 Bi
   0.9614894887747311    0.7010893535592445    0.4870641414761426 Bi
   0.0948228221080644    0.5899782424481336    0.4870641414761426 Bi
   0.2281561554413978    0.4788671313370222    0.4870641414761426 Bi
   0.3614894887747312    0.3677560202259113    0.4870641414761426 Bi
   0.4948228221080646    0.2566449091148000    0.4870641414761426 Bi
   0.6281561554413978    0.1455337980036890    0.4870641414761426 Bi
   0.7614894887747313    0.0344226868925778    0.4870641414761426 Bi
   0.8948228221080644    0.5899782424481336    0.4870641414761426 Bi
   0.0281561554413979    0.4788671313370222    0.4870641414761426 Bi
   0.1614894887747312    0.3677560202259113    0.4870641414761426 Bi
   0.2948228221080645    0.2566449091148000    0.4870641414761426 Bi
   0.4281561554413980    0.1455337980036890    0.4870641414761426 Bi
   0.5614894887747315    0.0344226868925778    0.4870641414761426 Bi
   0.6948228221080647    0.9233115757814667    0.4870641414761426 Bi
   0.9614894887747312    0.3677560202259113    0.4870641414761426 Bi
   0.0948228221080646    0.2566449091148000    0.4870641414761426 Bi
   0.2281561554413981    0.1455337980036890    0.4870641414761426 Bi
   0.3614894887747313    0.0344226868925778    0.4870641414761426 Bi
   0.4948228221080647    0.9233115757814667    0.4870641414761426 Bi
   0.8948228221080647    0.2566449091148000    0.4870641414761426 Bi
   0.0281561554413979    0.1455337980036890    0.4870641414761426 Bi
   0.1614894887747313    0.0344226868925778    0.4870641414761426 Bi
   0.2948228221080647    0.9233115757814667    0.4870641414761426 Bi
   0.9614894887747313    0.0344226868925778    0.4870641414761426 Bi
   0.0948228221080645    0.9233115757814667    0.4870641414761426 Bi
   0.8948228221080646    0.9233115757814667    0.4870641414761426 Bi
   0.0000884555238875    0.9472738053799311    0.2000427878291580 Se
   0.1364520918875238    0.9927283508344764    0.2000427878291580 Se
   0.1213005767360086    0.0987889568950824    0.2000427878291580 Se
   0.1061490615844935    0.2048495629556885    0.2000427878291580 Se
   0.0909975464329784    0.3109101690162946    0.2000427878291580 Se
   0.0758460312814632    0.4169707750769007    0.2000427878291580 Se
   0.0606945161299482    0.5230313811375068    0.2000427878291580 Se
   0.0455430009784330    0.6290919871981129    0.2000427878291580 Se
   0.0303914858269179    0.7351525932587188    0.2000427878291580 Se
   0.0152399706754029    0.8412131993193250    0.2000427878291580 Se
   0.2728157282511601    0.0381828962890218    0.2000427878291580 Se
   0.2576642130996449    0.1442435023496279    0.2000427878291580 Se
   0.2425126979481299    0.2503041084102340    0.2000427878291580 Se
   0.2273611827966147    0.3563647144708400    0.2000427878291580 Se
   0.2122096676450997    0.4624253205314462    0.2000427878291580 Se
   0.1970581524935846    0.5684859265920523    0.2000427878291580 Se
   0.1819066373420694    0.6745465326526584    0.2000427878291580 Se
   0.1667551221905542    0.7806071387132645    0.2000427878291580 Se
   0.1516036070390391    0.8866677447738706    0.2000427878291580 Se
   0.4243308797663116    0.9775768356829612    0.2000427878291580 Se
   0.4091793646147965    0.0836374417435673    0.2000427878291580 Se
   0.3940278494632814    0.1896980478041734    0.2000427878291580 Se
   0.3788763343117661    0.2957586538647795    0.2000427878291580 Se
   0.3637248191602510    0.4018192599253855    0.2000427878291580 Se
   0.3485733040087360    0.5078798659859917    0.2000427878291580 Se
   0.3334217888572208    0.6139404720465976    0.2000427878291580 Se
   0.3182702737057058    0.7200010781072037    0.2000427878291580 Se
   0.3031187585541906    0.8260616841678100    0.2000427878291580 Se
   0.2879672434026755    0.9321222902284160    0.2000427878291580 Se
   0.5606945161299480    0.0230313811375067    0.2000427878291580 Se
   0.5455430009784328    0.1290919871981127    0.2000427878291580 Se
   0.5303914858269178    0.2351525932587188    0.2000427878291580 Se
   0.5152399706754025    0.3412131993193249    0.2000427878291580 Se
   0.5000884555238875    0.4472738053799310    0.2000427878291580 Se
   0.4849369403723723    0.5533344114405371    0.2000427878291580 Se
   0.4697854252208573    0.6593950175011433    0.2000427878291580 Se
   0.4546339100693421    0.7654556235617493    0.2000427878291580 Se
   0.4394823949178269    0.8715162296223552    0.2000427878291580 Se
   0.7122096676450994    0.9624253205314460    0.2000427878291580 Se
   0.6970581524935842    0.0684859265920521    0.2000427878291580 Se
   0.6819066373420691    0.1745465326526583    0.2000427878291580 Se
   0.6667551221905540    0.2806071387132644    0.2000427878291580 Se
   0.6516036070390389    0.3866677447738704    0.2000427878291580 Se
   0.6364520918875238    0.4927283508344764    0.2000427878291580 Se
   0.6213005767360088    0.5987889568950825    0.2000427878291580 Se
   0.6061490615844936    0.7048495629556886    0.2000427878291580 Se
   0.5909975464329786    0.8109101690162948    0.2000427878291580 Se
   0.5758460312814632    0.9169707750769007    0.2000427878291580 Se
   0.8485733040087358    0.0078798659859914    0.2000427878291580 Se
   0.8334217888572207    0.1139404720465976    0.2000427878291580 Se
   0.8182702737057057    0.2200010781072038    0.2000427878291580 Se
   0.8031187585541905    0.3260616841678098    0.2000427878291580 Se
   0.7879672434026753    0.4321222902284158    0.2000427878291580 Se
   0.7728157282511600    0.5381828962890219    0.2000427878291580 Se
   0.7576642130996452    0.6442435023496280    0.2000427878291580 Se
   0.7425126979481299    0.7503041084102340    0.2000427878291580 Se
   0.7273611827966145    0.8563647144708401    0.2000427878291580 Se
   0.9849369403723721    0.0533344114405371    0.2000427878291580 Se
   0.9697854252208571    0.1593950175011431    0.2000427878291580 Se
   0.9546339100693420    0.2654556235617492    0.2000427878291580 Se
   0.9394823949178269    0.3715162296223551    0.2000427878291580 Se
   0.9243308797663117    0.4775768356829613    0.2000427878291580 Se
   0.9091793646147965    0.5836374417435674    0.2000427878291580 Se
   0.8940278494632815    0.6896980478041733    0.2000427878291580 Se
   0.8788763343117664    0.7957586538647794    0.2000427878291580 Se
   0.8637248191602513    0.9018192599253858    0.2000427878291580 Se
   0.9440568094681080    0.0028298461367312    0.3229896502366214 Se
   0.0804204458317445    0.0482843915912766    0.3229896502366214 Se
   0.0652689306802293    0.1543449976518826    0.3229896502366214 Se
   0.0501174155287141    0.2604056037124887    0.3229896502366214 Se
   0.0349659003771991    0.3664662097730948    0.3229896502366214 Se
   0.0198143852256840    0.4725268158337009    0.3229896502366214 Se
   0.0046628700741688    0.5785874218943070    0.3229896502366214 Se
   0.9895113549226536    0.6846480279549132    0.3229896502366214 Se
   0.9743598397711386    0.7907086340155191    0.3229896502366214 Se
   0.9592083246196234    0.8967692400761251    0.3229896502366214 Se
   0.2167840821953808    0.0937389370458220    0.3229896502366214 Se
   0.2016325670438657    0.1997995431064281    0.3229896502366214 Se
   0.1864810518923505    0.3058601491670342    0.3229896502366214 Se
   0.1713295367408354    0.4119207552276403    0.3229896502366214 Se
   0.1561780215893203    0.5179813612882463    0.3229896502366214 Se
   0.1410265064378052    0.6240419673488525    0.3229896502366214 Se
   0.1258749912862901    0.7301025734094586    0.3229896502366214 Se
   0.1107234761347749    0.8361631794700647    0.3229896502366214 Se
   0.0955719609832597    0.9422237855306709    0.3229896502366214 Se
   0.3682992337105323    0.0331328764397614    0.3229896502366214 Se
   0.3531477185590171    0.1391934825003675    0.3229896502366214 Se
   0.3379962034075020    0.2452540885609736    0.3229896502366214 Se
   0.3228446882559869    0.3513146946215797    0.3229896502366214 Se
   0.3076931731044718    0.4573753006821859    0.3229896502366214 Se
   0.2925416579529567    0.5634359067427919    0.3229896502366214 Se
   0.2773901428014416    0.6694965128033979    0.3229896502366214 Se
   0.2622386276499264    0.7755571188640039    0.3229896502366214 Se
   0.2470871124984113    0.8816177249246100    0.3229896502366214 Se
   0.2319355973468959    0.9876783309852160    0.3229896502366214 Se
   0.5046628700741685    0.0785874218943070    0.3229896502366214 Se
   0.4895113549226534    0.1846480279549130    0.3229896502366214 Se
   0.4743598397711384    0.2907086340155190    0.3229896502366214 Se
   0.4592083246196232    0.3967692400761252    0.3229896502366214 Se
   0.4440568094681080    0.5028298461367312    0.3229896502366214 Se
   0.4289052943165930    0.6088904521973373    0.3229896502366214 Se
   0.4137537791650778    0.7149510582579434    0.3229896502366214 Se
   0.3986022640135627    0.8210116643185495    0.3229896502366214 Se
   0.3834507488620474    0.9270722703791554    0.3229896502366214 Se
   0.6561780215893203    0.0179813612882462    0.3229896502366214 Se
   0.6410265064378048    0.1240419673488524    0.3229896502366214 Se
   0.6258749912862897    0.2301025734094585    0.3229896502366214 Se
   0.6107234761347746    0.3361631794700646    0.3229896502366214 Se
   0.5955719609832596    0.4422237855306707    0.3229896502366214 Se
   0.5804204458317446    0.5482843915912765    0.3229896502366214 Se
   0.5652689306802294    0.6543449976518827    0.3229896502366214 Se
   0.5501174155287142    0.7604056037124888    0.3229896502366214 Se
   0.5349659003771989    0.8664662097730949    0.3229896502366214 Se
   0.5198143852256839    0.9725268158337007    0.3229896502366214 Se
   0.7925416579529565    0.0634359067427916    0.3229896502366214 Se
   0.7773901428014410    0.1694965128033979    0.3229896502366214 Se
   0.7622386276499260    0.2755571188640040    0.3229896502366214 Se
   0.7470871124984111    0.3816177249246100    0.3229896502366214 Se
   0.7319355973468959    0.4876783309852161    0.3229896502366214 Se