Nb102 Bi140 Se414
1.0
  21.0680785732141196    0.0000000000000000    0.0000000000000013
   9.9646317563579707   25.1491906454596013    0.0000000000000017
   0.0000000000000000    0.0000000000000000   49.9893053307188922
Nb Bi Se
102 140 414
direct
   0.7411471763728148    0.1038437263114032    0.3553483310950541 Nb
   0.8328363764123091    0.1915069265076823    0.3572002206888975 Nb
   0.4571124244959240    0.0931152125175765    0.3555149828032159 Nb
   0.5595689768798020    0.1676997288201959    0.3558626424607491 Nb
   0.6571843170011363    0.2445092749045127    0.3558726924970071 Nb
   0.7561947327695053    0.3253796780409638    0.3565482482184487 Nb
   0.8501792247832907    0.4052937984850676    0.3545312871336724 Nb
   0.1874840499180372    0.0641897434290387    0.3574397585204396 Nb
   0.2781666606784858    0.1505101964640289    0.3566175519232684 Nb
   0.3833257008775917    0.2285491292565978    0.3570984108820998 Nb
   0.4819713252903647    0.3011750367334287    0.3559488851814679 Nb
   0.5748469355774533    0.3790748845925594    0.3556149187250141 Nb
   0.6780566473425993    0.4574260157617002    0.3567789634352459 Nb
   0.7766437488556284    0.5407569004131016    0.3562962403078330 Nb
   0.8726398781264777    0.6173574303516980    0.3540546215076779 Nb
   0.9119408063582367    0.0517485689632208    0.3548421485207588 Nb
   0.0095017615937885    0.1250637105075119    0.3565877525960133 Nb
   0.1100393061576522    0.2080095922896772    0.3572188956187551 Nb
   0.2081978436231006    0.2849860660775478    0.3565530543271748 Nb
   0.3122537696204923    0.3593259575097596    0.3573241930014386 Nb
   0.4051252074198130    0.4405094766029381    0.3563112116311903 Nb
   0.5001727551873868    0.5169995910866793    0.3565354844465662 Nb
   0.6043160311092561    0.5978628672654204    0.3589699394374297 Nb
   0.6974003209088702    0.6727441631632818    0.3544969968896634 Nb
   0.7950085391335803    0.7540757702450188    0.3568949717992616 Nb
   0.8932567188720391    0.8291936703768452    0.3577572555980422 Nb
   0.9312668627598032    0.2640586220177342    0.3572950139221904 Nb
   0.0233460481223593    0.3439866467587772    0.3571285375916980 Nb
   0.1252635423103731    0.4204166908959804    0.3572254582429653 Nb
   0.2291948462928016    0.5011852577583725    0.3552229411407691 Nb
   0.3250100164289589    0.5807547628019217    0.3565174803457546 Nb
   0.4252968818177137    0.6579551296221765    0.3567151132108415 Nb
   0.5281511601090629    0.7334683648841231    0.3562791632897117 Nb
   0.6197901980809525    0.8140130439032666    0.3584796836819678 Nb
   0.7140599594888775    0.8945322825918862    0.3551180685847647 Nb
   0.8150729209595488    0.9694232407853856    0.3565033980260462 Nb
   0.9512838276034670    0.4818374391656297    0.3551315290350446 Nb
   0.0509270768838692    0.5563145830912415    0.3559027753551067 Nb
   0.1461970454087103    0.6374951486468502    0.3565838700602074 Nb
   0.2527650488504169    0.7149699102283422    0.3551695765455470 Nb
   0.3499111692609356    0.7918656118809714    0.3565314661281590 Nb
   0.4449845573806560    0.8728563431240983    0.3558252867099586 Nb
   0.5404766746045970    0.9516716941909881    0.3556725583335486 Nb
   0.6415330179296990    0.0274139093882302    0.3585267710898120 Nb
   0.9719121055252030    0.6948478642852502    0.3561502648202523 Nb
   0.0732751571794438    0.7728432711825883    0.3558293897581519 Nb
   0.1678496659138088    0.8514613465432064    0.3548747488348581 Nb
   0.2636530994970502    0.9305036555561558    0.3577818936327354 Nb
   0.3644330413856381    0.0093435403029156    0.3560943396415298 Nb
   0.9945249909545861    0.9127854222156879    0.3562621214044262 Nb
   0.0880955900718782    0.9918393617325130    0.3555707702998495 Nb
   0.7387506913782332    0.1066236297486738    0.2323301838485430 Nb
   0.8374767724556773    0.1824491250628448    0.2333971652935409 Nb
   0.4565536374523666    0.0896916211770471    0.2356383535529579 Nb
   0.5615763655725798    0.1682124553868972    0.2351943501782036 Nb
   0.6586218407243764    0.2466724281437474    0.2354134512109113 Nb
   0.7494171480276146    0.3268006443611415    0.2342736527858883 Nb
   0.8547412813269291    0.4006184701589142    0.2332999609340308 Nb
   0.1855905110468433    0.0701502404658167    0.2329951400698687 Nb
   0.2820234388986011    0.1500880503375742    0.2329953865540356 Nb
   0.3828682820302864    0.2244579440978139    0.2334100722862039 Nb
   0.4818775514605754    0.3059796489359885    0.2346278329350483 Nb
   0.5849521694669210    0.3782033737380763    0.2342765103182500 Nb
   0.6759701771911689    0.4619250248917200    0.2332600024877968 Nb
   0.7730577882289369    0.5434573428403300    0.2341832878026226 Nb
   0.8750469076733633    0.6156789211512820    0.2354552675850599 Nb
   0.9149347338048236    0.0489544084902322    0.2348569025895334 Nb
   0.0116715183304249    0.1259624438903501    0.2339693615141664 Nb
   0.1073743408029657    0.2082730738448376    0.2304641396514039 Nb
   0.2091596955478613    0.2878253774270393    0.2338320496230533 Nb
   0.3017721236585335    0.3622295641189047    0.2305461638372319 Nb
   0.4026340255804459    0.4402424892456967    0.2325932602774179 Nb
   0.4963608380774338    0.5221410803085591    0.2305357972885378 Nb
   0.6018867787282502    0.5965713602157993    0.2341590614123058 Nb
   0.6978634576888428    0.6742175307381446    0.2318584681489592 Nb
   0.7915626031075099    0.7559557566038588    0.2341857958356667 Nb
   0.8862687785755923    0.8345315957018274    0.2337046331803571 Nb
   0.9304590177228412    0.2666696173956155    0.2327245729735452 Nb
   0.0298553232582183    0.3462849202434962    0.2346371047565060 Nb
   0.1282566889990892    0.4192021046661208    0.2346509381824755 Nb
   0.2247085733505275    0.4994168174515747    0.2352633064812904 Nb
   0.3286927821037012    0.5767073964483633    0.2336484087373809 Nb
   0.4141392538984396    0.6586833239270719    0.2346715209019221 Nb
   0.5152019070102175    0.7359105805846202    0.2348506267097383 Nb
   0.6189269927965696    0.8140922969677583    0.2314370502730823 Nb
   0.7138453790272713    0.8934928927947843    0.2345253156499749 Nb
   0.8134015252881467    0.9681959974578928    0.2325976229102902 Nb
   0.9490376022768915    0.4765213310699699    0.2327526993137347 Nb
   0.0464932245982067    0.5559916778397626    0.2337942859577364 Nb
   0.1488482954828876    0.6407343046917834    0.2320660125087256 Nb
   0.2474982560437326    0.7166073435850616    0.2323908148075726 Nb
   0.3400144334382291    0.7894853437010064    0.2344375183105882 Nb
   0.4344054387538573    0.8740164197843697    0.2326737491898991 Nb
   0.5331344686792756    0.9517330454134205    0.2330009363771937 Nb
   0.6425650540756694    0.0302533867443261    0.2346897579076121 Nb
   0.9729048840545050    0.6964736251108352    0.2329221237059766 Nb
   0.0715010852783774    0.7721882013961407    0.2334503173473201 Nb
   0.1649464909985258    0.8535986550937924    0.2330129645415424 Nb
   0.2647420443998246    0.9321059729740558    0.2334423846088161 Nb
   0.3656040576567869    0.0095096427440755    0.2331756028520337 Nb
   0.9908702643653562    0.9123872228286608    0.2329768960413171 Nb
   0.0875480849509623    0.9865665029848735    0.2342593141050967 Nb
   0.6247215336524855    0.0842681132098738    0.7681299951327211 Bi
   0.6544432526466688    0.2266250078099295    0.7682534512098587 Bi
   0.6802389871726421    0.3714034478241405    0.7684891065845930 Bi
   0.7186187665175602    0.5117352239022410    0.7650085528289855 Bi
   0.7398059158905309    0.6589441863567340    0.7659542103662451 Bi
   0.7731081431811540    0.8020831435101478    0.7672908375465112 Bi
   0.7979914071881651    0.9436371773541949    0.7679299624472447 Bi
   0.4316982957363725    0.0860061467744805    0.7656905654979719 Bi
   0.4544998050664716    0.2254967832646357    0.7671731349430378 Bi
   0.4817528044585545    0.3706884941213379    0.7678275824933931 Bi
   0.5098662330954107    0.5142422094551889    0.7696164608792136 Bi
   0.5408711282293710    0.6566566411330214    0.7691408593511900 Bi
   0.5686529214737908    0.7995626529161446    0.7686274002455794 Bi
   0.5961670433651203    0.9414982259425477    0.7659127120319080 Bi
   0.2255226556348610    0.0889772160459129    0.7674057602470250 Bi
   0.2527935259370907    0.2298165524208087    0.7679904870912977 Bi
   0.2847147438265962    0.3688943753149957    0.7696230052059353 Bi
   0.3188802221416797    0.5130336177949143    0.7655270319429248 Bi
   0.3442053884217086    0.6549129726217718    0.7667312160902313 Bi
   0.3729679036534569    0.8038134314510339    0.7640897558614114 Bi
   0.4028458817215274    0.9377211451403055    0.7680718017159163 Bi
   0.0271893387373928    0.0813288615676188    0.7675504716237836 Bi
   0.0566285036078833    0.2306159794109062    0.7663303183014767 Bi
   0.0840507503243228    0.3743130581042465    0.7659895523512550 Bi
   0.1184363398676371    0.5096924704880000    0.7694088940366492 Bi
   0.1461913508512339    0.6530544113482299    0.7656986970778190 Bi
   0.1706688891328104    0.7995345766927633    0.7678289774846236 Bi
   0.2000960933303640    0.9423727828672872    0.7683934980301574 Bi
   0.8279045545143278    0.0872744625508539    0.7683617139802814 Bi
   0.8550169936463087    0.2253694023679710    0.7678347379879880 Bi
   0.8840035580600605    0.3717300535404824    0.7679526126716587 Bi
   0.9142752487112713    0.5111077868948295    0.7672096128157814 Bi
   0.9388430657317697    0.6589648735093713    0.7670438688508544 Bi
   0.9709630293832382    0.7985284655917698    0.7659975257544359 Bi
   0.9991311543215969    0.9415038713663976    0.7662197509170197 Bi
   0.7524098051517004    0.0375127184121586    0.6880902352174567 Bi
   0.7822090432670746    0.1797000233798678    0.6863195709704857 Bi
   0.8050287112875433    0.3252797393570707    0.6868037926249956 Bi
   0.8383055731213664    0.4690533044419744    0.6866459920634844 Bi
   0.8760805942153594    0.6015388211338009    0.6872125549878149 Bi
   0.8923166198797472    0.7545543850166389    0.6848393804461994 Bi
   0.9205779526465168    0.8939096450752982    0.6880000332417332 Bi
   0.5595197832734308    0.0358096100986873    0.6883569884014085 Bi
   0.5756868203559407    0.1791185364759172    0.6855013949515315 Bi
   0.6047131822975109    0.3235908294803789    0.6888410113958301 Bi
   0.6327444936701027    0.4665076384473302    0.6890026326186730 Bi
   0.6616260417731128    0.6100948254408798    0.6887404207218275 Bi
   0.6990077848583635    0.7497427421959911    0.6872382604240143 Bi
   0.7273932148593054    0.8945857053762540    0.6883511756280999 Bi
   0.3494511947853274    0.0377088890429285    0.6870941978354456 Bi
   0.3875382648174194    0.1751762928743194    0.6868300858897918 Bi
   0.4068347238611408    0.3225447264589567    0.6871730861589931 Bi
   0.4351021906815263    0.4655322704655004    0.6885570631785048 Bi
   0.4624838057947017    0.6115902912355128    0.6850221877991246 Bi
   0.4966074608904428    0.7491410456251816    0.6865192056410738 Bi
   0.5277441283060718    0.8926466374960454    0.6861829055901901 Bi
   0.1491036904289884    0.0394381815911544    0.6885200441458265 Bi
   0.1773325314530319    0.1806550338571331    0.6871667845981730 Bi
   0.2091111843156295    0.3228034463147135    0.6876626683049404 Bi
   0.2393147525318908    0.4643279265113003    0.6889933070541303 Bi
   0.2673888531883959    0.6111106761811196    0.6883337974186762 Bi
   0.3036362128742722    0.7486156466423441    0.6860195994043412 Bi
   0.3289756870890143    0.8927003721290868    0.6885458309632613 Bi
   0.9536723940779953    0.0357295654225597    0.6887703162578902 Bi
   0.9853669952355796    0.1790017938075533    0.6886006520074680 Bi
   0.0106364033206842    0.3225838498369009    0.6882157053794593 Bi
   0.0401942257331330    0.4686266694430375    0.6860758839537846 Bi
   0.0669313514539178    0.6078691046237047    0.6895636825837442 Bi
   0.0974723146526793    0.7514225043273441    0.6871026005209032 Bi
   0.1224652114403191    0.8994394663326098    0.6874598317429832 Bi
   0.7587267082466825    0.0325078407680433    0.5661090015980172 Bi
   0.7802672421384991    0.1814503434229787    0.5665367085159212 Bi
   0.8071644645869162    0.3188212220593903    0.5654532301358987 Bi
   0.8394708148408547    0.4635618001786086    0.5662563180552388 Bi
   0.8625591656844485    0.6075562907964511    0.5670356038557626 Bi
   0.8899150803080855    0.7544772149118437    0.5675968897886943 Bi
   0.9274659448417626    0.8933422459049464    0.5646335357043033 Bi
   0.5546371572945188    0.0321155680305941    0.5672386986666568 Bi
   0.5887095513552225    0.1737636303957360    0.5644417835254577 Bi
   0.6071187556160724    0.3239200866147719    0.5679023746016327 Bi
   0.6426776537691986    0.4643245527916854    0.5659149600882417 Bi
   0.6724552066030139    0.6086527136282397    0.5667651131140011 Bi
   0.6979025399811890    0.7427356201284508    0.5653134820690068 Bi
   0.7196894000456205    0.8960258275547895    0.5670877876629793 Bi
   0.3565531464033110    0.0342917274849573    0.5667129475480172 Bi
   0.3920414733759517    0.1742219210130430    0.5661030455452862 Bi
   0.4188042711668145    0.3208083543345013    0.5653121287037238 Bi
   0.4434994098208876    0.4645930349708939    0.5665569275502765 Bi
   0.4729468179009647    0.6016561267150111    0.5682310709472785 Bi
   0.4979302898830906    0.7511758762735510    0.5657780233070711 Bi
   0.5261488581833794    0.8938521561744858    0.5686358358289292 Bi
   0.1550394997761222    0.0342698617735497    0.5664418467708918 Bi
   0.1839207103001684    0.1804135118819103    0.5680024025616910 Bi
   0.2100626242811411    0.3194541971655289    0.5673391996802619 Bi
   0.2395978255548294    0.4641870650084809    0.5693592700248706 Bi
   0.2729725055104951    0.6060153785537896    0.5659686502132469 Bi
   0.2950566211749360    0.7491937908935905    0.5671070003463617 Bi
   0.3219503898331018    0.8899874284291045    0.5654022698036947 Bi
   0.9629521999605342    0.0344886265210571    0.5673891761443324 Bi
   0.9855052223244971    0.1762632302424062    0.5664829282924468 Bi
   0.0107322772266481    0.3230171441649721    0.5667088159840988 Bi
   0.0379493892476236    0.4675443649720645    0.5642981833981805 Bi
   0.0706330580066065    0.6088022358977730    0.5677844256209624 Bi
   0.0980222426867235    0.7466717019923619    0.5654102222552392 Bi
   0.1321573042427280    0.8932507551914590    0.5668970627497921 Bi
   0.6853528012515369    0.9838581824686207    0.4862876865118675 Bi
   0.7084673531547425    0.1252452068636472    0.4880940043742875 Bi
   0.7325196354890746    0.2740327339139427    0.4876610088069872 Bi
   0.7638756799038229    0.4132055886356884    0.4875198861500067 Bi
   0.7873383777768989    0.5583080897504836    0.4875064504068243 Bi
   0.8232826769051689    0.7038297458811670    0.4880395530933989 Bi
   0.8510724217806583    0.8427609015969036    0.4864751547896078 Bi
   0.4814584118909961    0.9883405374080267    0.4869487645031114 Bi
   0.5027580549704010    0.1364914921650427    0.4868565637172728 Bi
   0.5389763991704366    0.2765167822712239    0.4871043738561674 Bi
   0.5673770012847602    0.4140429370190675    0.4877912878484707 Bi
   0.5874810504502016    0.5618430990676921    0.4846006306212180 Bi
   0.6230269516362896    0.7045569721239255    0.4873886403419232 Bi
   0.6499579915070696    0.8455199735151283    0.4872847049256825 Bi
   0.2824044531704742    0.9874438540003434    0.4893837717532993 Bi
   0.3071437045376286    0.1314184287487140    0.4858437977472738 Bi
   0.3323518875586555    0.2741209205227272    0.4872371953886391 Bi
   0.3703203560436690    0.4123223770935388    0.4858287136226307 Bi
   0.3972318989539065    0.5553939933401912    0.4864095654247410 Bi
   0.4232299902773622    0.6970652611543765    0.4882076414018772 Bi
   0.4488702312941012    0.8447630130567617    0.4877250640293918 Bi
   0.0820688496358397    0.9828175546339827    0.4856734960220685 Bi
   0.1103259901240335    0.1318246085593967    0.4869565568373752 Bi
   0.1353636201325029    0.2782189261467996    0.4835904903032981 Bi
   0.1649279297709742    0.4141680888533206    0.4874077557132775 Bi
   0.1885283189050150    0.5628125684999037    0.4859437655489567 Bi
   0.2234486553424604    0.7043899695564049    0.4880365019434931 Bi
   0.2532284749766283    0.8435178865529745    0.4853959899880169 Bi
   0.8815240401356436    0.9874184613363484    0.4872738756031808 Bi
   0.9036670964118502    0.1311404994396801    0.4898739771179537 Bi
   0.9359844402667185    0.2777901925842302    0.4839971483744962 Bi
   0.9689839636330628    0.4126010056184320    0.4870541710206671 Bi
   0.9909088757877119    0.5627376488448439    0.4876847215088924 Bi
   0.0216233969806853    0.7012103916143985    0.4860189811092684 Bi
   0.0442425642560440    0.8446451873715479    0.4866650908082418 Bi
   0.7280070068948260    0.0372605181008316    0.2002086022032306 Se
   0.8250791028350950    0.1144600550300776    0.1979334336450685 Se
   0.4496337560533012    0.0122471136231333    0.2008745737223847 Se
   0.5485428542483231    0.0971385393448036    0.2012952754850906 Se
   0.6499579839880640    0.1738900891671830    0.2007469367845438 Se
   0.7455338112051748    0.2506201823738032    0.2029611191547865 Se
   0.8468385039616191    0.3298825121779921    0.1998155867447605 Se
   0.1829109218885903    0.9948880920395733    0.1985048445207070 Se
   0.2741888262091944    0.0768178447727185    0.1996323443844173 Se
   0.3842245487933763    0.1543953638119518    0.2030598127478911 Se
   0.4821927727004734    0.2309798696921340    0.1986729984307210 Se
   0.5744760736221800    0.3116128227406806    0.2003882198468250 Se
   0.6672508842322435    0.3858440162259656    0.1987747049927646 Se
   0.7610264804995378    0.4697974502030926    0.1993447334555869 Se
   0.8596273326155681    0.5491587114930158    0.1996122048135298 Se
   0.9042440998773706    0.9759321554563972    0.1993885511725819 Se
   0.0058974870156515    0.0558801633483031    0.2006940847451564 Se
   0.0924120697668269    0.1375599563166122    0.2001233257187861 Se
   0.2033740757711445    0.2091480285812728    0.1984561164271224 Se
   0.2955219978603650    0.2936225920227419    0.1997435639707383 Se
   0.3966131743361057    0.3662001848884956    0.1970768082900050 Se
   0.4995896467469581    0.4485461489912982    0.2008895140917908 Se
   0.5905815117278715    0.5299844014126860    0.2002434415714661 Se
   0.6922313156404830    0.6058741569952545    0.1981827218249384 Se
   0.7872355203189255    0.6850044050743483    0.1998551444522074 Se
   0.8831572312785455    0.7598540216525486    0.1997960494680972 Se
   0.9266005196475338    0.1911286098875276    0.1993257983115171 Se
   0.0271090349365455    0.2673914229890969    0.2002082576774876 Se
   0.1170512509939863    0.3551182537896151    0.2000546863905258 Se
   0.2198881472142231    0.4293712396438012    0.2011831647889391 Se
   0.3215632325913365    0.5081396596388602    0.1991942139499103 Se
   0.4151975456812503    0.5835312395109148    0.1987188549484476 Se
   0.5106410551899387    0.6633231029153811    0.1984681132028336 Se
   0.6148819307735183    0.7411972967328168    0.2005415437603802 Se
   0.7075724998917916    0.8169391742756563    0.2007337444111859 Se
   0.8098321466823453    0.8981643552903233    0.2011760081552102 Se
   0.9472990461663788    0.4044749839982921    0.2013417651904940 Se
   0.0403343240686686    0.4857206288342940    0.1995918678378198 Se
   0.1433293733380987    0.5651644576597509    0.1994294674129258 Se
   0.2390061328471696    0.6463243804459129    0.2000211764892729 Se
   0.3386352200811377    0.7213838540311938    0.1983631784044967 Se
   0.4302811101566535    0.8069243618822255    0.1997419446159285 Se
   0.5343493607134613    0.8842070427200730    0.2003710659329603 Se
   0.6320546419399320    0.9576266017201327    0.1981368686771417 Se
   0.9696124519383320    0.6239953642714895    0.1999370209230156 Se
   0.0627437351452193    0.7016369479673280    0.1993228938399045 Se
   0.1598959425795188    0.7772255680367400    0.1995459076560166 Se
   0.2605562770585131    0.8583764435970753    0.2002233040115233 Se
   0.3561356176561181    0.9354153729228573    0.2030549090641675 Se
   0.9824152441458196    0.8381632254168329    0.1974991184060790 Se
   0.0789285024969509    0.9220758997903644    0.2011504264957107 Se
   0.8232447328055338    0.0406265338887487    0.3225055913544218 Se
   0.9174603060056747    0.1261693902655594    0.3240260025010601 Se
   0.5520629261648674    0.0217834728883276    0.3222880868005821 Se
   0.6482078379789830    0.1028840708290562    0.3232721847449978 Se
   0.7424390681514383    0.1820426221001085    0.3219689125300564 Se
   0.8376992850232001    0.2629437110355733    0.3256549242437859 Se
   0.9332142278280736    0.3357412233091503    0.3228387174497737 Se
   0.2682082118831055    0.0055367451786893    0.3240150533867434 Se
   0.3713576748167258    0.0814022248457225    0.3229013641848066 Se
   0.4737194990359699    0.1577927103899251    0.3248599474730394 Se
   0.5666842406786160    0.2383200157987499    0.3224476625598615 Se
   0.6699531122828944    0.3139237224278378    0.3230539907887696 Se
   0.7637710782464130    0.3940433250330131    0.3236895345168490 Se
   0.8619826496330901    0.4728971024318189    0.3258622240748119 Se
   0.9585996228116834    0.5532946246601135    0.3241330797643290 Se
   0.9981201598453017    0.9791346680125377    0.3223033023938902 Se
   0.0941937246675621    0.0638285804228979    0.3231618268316330 Se
   0.1926617798687174    0.1391062010168052    0.3237889649025658 Se
   0.2863631007621408    0.2194610840123476    0.3239216205086747 Se
   0.3902473651103395    0.2962061353173430    0.3243495710886284 Se
   0.4958544790145701    0.3753396211265765    0.3232729354336166 Se
   0.5844114664229402    0.4533755511471404    0.3240860636705844 Se
   0.6868324775557524    0.5326508816371193    0.3232822497793849 Se
   0.7768034713908601    0.6104460288045446    0.3257345601257019 Se
   0.8838948477602090    0.6891140474794880    0.3246361739284914 Se
   0.9756333312623073    0.7686553861455326    0.3223925753200806 Se
   0.0255344499132133    0.1940039603662391    0.3231153783608061 Se
   0.1128293039558888    0.2785704545106129    0.3244455761243353 Se
   0.2144083541926711    0.3552818530570807    0.3235572518461020 Se
   0.3136064733038785    0.4309257496559764    0.3229982677742482 Se
   0.4109083389468829    0.5140181174156705    0.3235175549534610 Se
   0.5071764090054103    0.5901889953896416    0.3230839625726670 Se
   0.6040815603181372    0.6689566353203920    0.3227986689753924 Se
   0.6975151691700867    0.7536713335736611    0.3230781420505968 Se
   0.8036117650508102    0.8300286531618865    0.3244839652190331 Se
   0.8949330924747758    0.9058364002334226    0.3218149793764959 Se
   0.0402389734014309    0.4106892250833327    0.3228277171680720 Se
   0.1309492979546565    0.4915762850644499    0.3228593400047674 Se
   0.2366982158134135    0.5721789530468024    0.3231756329779741 Se
   0.3356026803334449    0.6493281979103744    0.3229950315521199 Se
   0.4337234635261356    0.7285179851806437    0.3229151902552330 Se
   0.5295186028834268    0.8007707108678398    0.3217000198183799 Se
   0.6319864285127222    0.8862039658123763    0.3219660225011683 Se
   0.7248931777676172    0.9625053618484403    0.3229386425535690 Se
   0.0584239541911067    0.6291063311507830    0.3234971281436358 Se
   0.1575215514617459    0.7057952369560179    0.3223616976261641 Se
   0.2523355877242198    0.7877912647066376    0.3220562895427992 Se
   0.3461738854778508    0.8704912188190064    0.3225590902219960 Se
   0.4447899486535458    0.9476324436971965    0.3240541241517945 Se
   0.0777628127389107    0.8471577032774540    0.3226775504448854 Se
   0.1766141155904707    0.9236342635335266    0.3223097891760949 Se
   0.7314652037625705    0.0352715998935475    0.2673067726654089 Se
   0.8293523564589488    0.1167874439781614    0.2678522459172206 Se
   0.4586144377155583    0.0202665898757667    0.2664823905243425 Se
   0.5529971832504967    0.0932593937094827    0.2679691708080837 Se
   0.6494949199301131    0.1718263438772098    0.2689967229848526 Se
   0.7522931020019237    0.2517966820689058    0.2673500831361348 Se
   0.8409713482264747    0.3333841148597368    0.2701414296653848 Se
   0.1826469024643607    0.9940726018577648    0.2663520553536743 Se
   0.2743802057826819    0.0765310057494178    0.2655847774233946 Se
   0.3728299082012755    0.1560286690944399    0.2676144335147497 Se
   0.4756278823066150    0.2345262271842391    0.2672497373632429 Se
   0.5693399256188028    0.3124135108156871    0.2666807001556419 Se
   0.6755182905910181    0.3952636936796168    0.2681764984765864 Se
   0.7693798746211429    0.4673028495418680    0.2679595077639830 Se
   0.8655249828792990    0.5465482364679592    0.2672794700129332 Se
   0.9082503019074164    0.9793826212100490    0.2678248535498626 Se
   0.0002605573371653    0.0562482398987223    0.2670540249926454 Se
   0.1066810803874762    0.1340566985586426    0.2675708516996766 Se
   0.1946398513123417    0.2115672216950421    0.2667003772423254 Se
   0.2944852420247351    0.2913716924924938    0.2681052473657952 Se
   0.3961171018649247    0.3690958597862093    0.2664417336634062 Se
   0.4963725580680488    0.4530489542863571    0.2685399592449267 Se
   0.5932940366552140    0.5293048749506153    0.2665843048000850 Se
   0.6911350024606796    0.6036512800223682    0.2684193390691272 Se
   0.7913277468825477    0.6808878355730735    0.2665131358932367 Se
   0.8858120246348491    0.7602115071689729    0.2677623928995564 Se
   0.9253764520696789    0.1916408150633926    0.2639702830966451 Se
   0.0289297488783492    0.2686100099770186    0.2686549484591126 Se
   0.1241704842750394    0.3496198535694773    0.2667669323339504 Se
   0.2165308832118022    0.4279582291006518    0.2676503242160209 Se
   0.3171758156295924    0.5062590465206750    0.2693878660218284 Se
   0.4114959438463842    0.5883329646827585    0.2653994058261496 Se
   0.5139197806005306    0.6642678721454561    0.2668791829197418 Se
   0.6097214088634569    0.7435353509460023    0.2688445772098033 Se
   0.7128887069464945    0.8185280824614813    0.2648866888727412 Se
   0.8021306149150658    0.9000799688982082    0.2684433297805506 Se
   0.9438121019106268    0.4119117495608853    0.2672863441013348 Se
   0.0398931722143809    0.4859192234247502    0.2661158100387348 Se
   0.1407319349040032    0.5704965258387367    0.2668596359486169 Se
   0.2384523372006439    0.6406428077857244    0.2658297540392663 Se
   0.3371348828135678    0.7226891758874090    0.2665151344864745 Se
   0.4385414511534547    0.8012199808692695    0.2676493707228368 Se
   0.5302717637285100    0.8803181141545524    0.2670513236598678 Se
   0.6282191314428994    0.9597907225231901    0.2664847948635351 Se
   0.9644249074561878    0.6284207343606726    0.2658971497928431 Se
   0.0632687607605211    0.7055545748714729    0.2672586600485871 Se
   0.1584594451443447    0.7824847734411482    0.2679074650346199 Se
   0.2616539554161194    0.8591082823561981    0.2689762788643097 Se
   0.3574820637303645    0.9363042717573705    0.2661591509882778 Se
   0.9869615701935307    0.8391154317660207    0.2684484993142398 Se
   0.0836134203314872    0.9165019380303200    0.2686481915825192 Se
   0.8160629039009802    0.0407706561728410    0.3910872065159538 Se
   0.9245539280134094    0.1237225631441713    0.3919262258489024 Se
   0.5474245156135946    0.0209110360581461    0.3902921295106961 Se
   0.6455630602812061    0.1042286714134799    0.3911800433594751 Se
   0.7367005917142757    0.1820056548750637    0.3904526765244399 Se
   0.8464162989134644    0.2544578075259116    0.3918315031824600 Se
   0.9413660700032643    0.3327792338875408    0.3900044177490453 Se
   0.2750270036041933    0.0000388806948230    0.3909821272887101 Se
   0.3731131399767106    0.0800880950121022    0.3894149226054615 Se
   0.4688856820700779    0.1590658335841592    0.3881481438919201 Se
   0.5678252905178903    0.2398271612496733    0.3896383724592130 Se
   0.6649084980822276    0.3147734720904277    0.3902642770757980 Se
   0.7572564332979120    0.3980482649758383    0.3885248242291828 Se
   0.8603539770615233    0.4740480009684103    0.3927667030074324 Se
   0.9576235154257255    0.5533060786394953    0.3888705902192093 Se
   1.0000623377679336    0.9820762084251540    0.3899165825268708 Se
   0.0948298116072721    0.0642087682461125    0.3894373989651040 Se
   0.1900598966475350    0.1402600638174796    0.3882492741879007 Se
   0.2932220230191018    0.2141248745869035    0.3890969971907635 Se
   0.3892584828742852    0.3009580160612343    0.3884098993970291 Se
   0.4868514992234373    0.3748096561861016    0.3883096738938764 Se
   0.5876604566122996    0.4522228388913275    0.3913819268726432 Se
   0.6847322858655006    0.5358669467258795    0.3899314592676457 Se
   0.7811449979155416    0.6153305013407014    0.3908547418639184 Se
   0.8791004211526396    0.6883707351435748    0.3919098267845220 Se
   0.9792403854872928    0.7704013014259562    0.3887111446304840 Se
   0.0178841988457593    0.2054887327053302    0.3904189976034640 Se
   0.1148076625106377    0.2781780177708137    0.3906538042245432 Se
   0.2148404605619501    0.3565925353845411    0.3920162334406251 Se
   0.3096182420200932    0.4352773949050476    0.3886625491305791 Se
   0.4133635632276433    0.5118297523566556    0.3892812028530533 Se
   0.5070685584384815    0.5953641478400407    0.3924296376235136 Se
   0.6064127951470352    0.6682028149228297    0.3884529897694447 Se
   0.7068722393348094    0.7457214941149581    0.3903830589641780 Se
   0.8013615972470991    0.8268041252004221    0.3897668048147123 Se
   0.8937954943560762    0.9054963797510519    0.3925657835862384 Se