Nb50 Bi72 Se208
1.0
  15.0973550219618300    0.0000000000000000    0.0000000000000009
   1.9864940807831288   17.2035433930648338    0.0000000000000011
   0.0000000000000000    0.0000000000000000   44.4624158930297497
Nb Bi Se
50 72 208
direct
   0.0706998344196244    0.0031711421792972    0.3447480443666842 Nb
   0.0706998344196244    0.2031711421792972    0.3447480443666842 Nb
   0.0706998344196245    0.4031711421792972    0.3447480443666842 Nb
   0.0706998344196245    0.6031711421792972    0.3447480443666842 Nb
   0.0706998344196245    0.8031711421792972    0.3447480443666842 Nb
   0.2706998344196244    0.0831711421792972    0.3447480443666842 Nb
   0.2706998344196244    0.2831711421792972    0.3447480443666842 Nb
   0.2706998344196244    0.4831711421792971    0.3447480443666842 Nb
   0.2706998344196246    0.6831711421792973    0.3447480443666842 Nb
   0.2706998344196245    0.8831711421792973    0.3447480443666842 Nb
   0.4706998344196243    0.1631711421792973    0.3447480443666842 Nb
   0.4706998344196245    0.3631711421792971    0.3447480443666842 Nb
   0.4706998344196245    0.5631711421792973    0.3447480443666842 Nb
   0.4706998344196246    0.7631711421792972    0.3447480443666842 Nb
   0.4706998344196243    0.9631711421792971    0.3447480443666842 Nb
   0.6706998344196244    0.0431711421792972    0.3447480443666842 Nb
   0.6706998344196246    0.2431711421792971    0.3447480443666842 Nb
   0.6706998344196246    0.4431711421792971    0.3447480443666842 Nb
   0.6706998344196247    0.6431711421792972    0.3447480443666842 Nb
   0.6706998344196244    0.8431711421792971    0.3447480443666842 Nb
   0.8706998344196246    0.1231711421792971    0.3447480443666842 Nb
   0.8706998344196246    0.3231711421792971    0.3447480443666842 Nb
   0.8706998344196246    0.5231711421792973    0.3447480443666842 Nb
   0.8706998344196244    0.7231711421792972    0.3447480443666842 Nb
   0.8706998344196245    0.9231711421792970    0.3447480443666843 Nb
   0.0713503446888462    0.0031628441108547    0.2065134900768983 Nb
   0.0713503446888462    0.2031628441108548    0.2065134900768983 Nb
   0.0713503446888462    0.4031628441108547    0.2065134900768983 Nb
   0.0713503446888462    0.6031628441108549    0.2065134900768983 Nb
   0.0713503446888463    0.8031628441108548    0.2065134900768983 Nb
   0.2713503446888462    0.0831628441108547    0.2065134900768983 Nb
   0.2713503446888462    0.2831628441108548    0.2065134900768983 Nb
   0.2713503446888463    0.4831628441108549    0.2065134900768983 Nb
   0.2713503446888463    0.6831628441108548    0.2065134900768983 Nb
   0.2713503446888461    0.8831628441108547    0.2065134900768983 Nb
   0.4713503446888461    0.1631628441108548    0.2065134900768983 Nb
   0.4713503446888463    0.3631628441108549    0.2065134900768983 Nb
   0.4713503446888463    0.5631628441108548    0.2065134900768983 Nb
   0.4713503446888462    0.7631628441108547    0.2065134900768983 Nb
   0.4713503446888463    0.9631628441108547    0.2065134900768983 Nb
   0.6713503446888464    0.0431628441108547    0.2065134900768983 Nb
   0.6713503446888465    0.2431628441108549    0.2065134900768983 Nb
   0.6713503446888460    0.4431628441108549    0.2065134900768983 Nb
   0.6713503446888461    0.6431628441108547    0.2065134900768983 Nb
   0.6713503446888464    0.8431628441108546    0.2065134900768983 Nb
   0.8713503446888464    0.1231628441108549    0.2065134900768983 Nb
   0.8713503446888460    0.3231628441108548    0.2065134900768983 Nb
   0.8713503446888460    0.5231628441108547    0.2065134900768983 Nb
   0.8713503446888463    0.7231628441108546    0.2065134900768983 Nb
   0.8713503446888461    0.9231628441108546    0.2065134900768983 Nb
   0.6050709183501828    0.0816478269214670    0.7944001694220465 Bi
   0.7717375850168493    0.2483144935881337    0.7944001694220465 Bi
   0.3272931405724049    0.1372033824770226    0.7944001694220465 Bi
   0.4939598072390718    0.3038700491436893    0.7944001694220465 Bi
   0.6606264739057383    0.4705367158103561    0.7944001694220465 Bi
   0.8272931405724050    0.6372033824770227    0.7944001694220465 Bi
   0.8828486961279606    0.0260922713659115    0.7944001694220465 Bi
   0.0495153627946273    0.1927589380325781    0.7944001694220465 Bi
   0.2161820294612940    0.3594256046992448    0.7944001694220465 Bi
   0.3828486961279604    0.5260922713659115    0.7944001694220465 Bi
   0.5495153627946272    0.6927589380325780    0.7944001694220465 Bi
   0.7161820294612937    0.8594256046992448    0.7944001694220465 Bi
   0.9384042516835162    0.4149811602548003    0.7944001694220465 Bi
   0.1050709183501828    0.5816478269214671    0.7944001694220465 Bi
   0.2717375850168495    0.7483144935881336    0.7944001694220465 Bi
   0.4384042516835162    0.9149811602548005    0.7944001694220465 Bi
   0.9939598072390717    0.8038700491436892    0.7944001694220465 Bi
   0.1606264739057383    0.9705367158103558    0.7944001694220465 Bi
   0.4591614463709665    0.0436683205222321    0.7047369577364244 Bi
   0.6258281130376331    0.2103349871888989    0.7047369577364244 Bi
   0.1813836685931887    0.0992238760777877    0.7047369577364244 Bi
   0.3480503352598556    0.2658905427444543    0.7047369577364244 Bi
   0.5147170019265219    0.4325572094111209    0.7047369577364244 Bi
   0.6813836685931887    0.5992238760777877    0.7047369577364244 Bi
   0.7369392241487441    0.9881127649666765    0.7047369577364244 Bi
   0.9036058908154111    0.1547794316333433    0.7047369577364244 Bi
   0.0702725574820777    0.3214460983000099    0.7047369577364244 Bi
   0.2369392241487443    0.4881127649666764    0.7047369577364244 Bi
   0.4036058908154108    0.6547794316333432    0.7047369577364244 Bi
   0.5702725574820775    0.8214460983000099    0.7047369577364244 Bi
   0.7924947797042998    0.3770016538555656    0.7047369577364244 Bi
   0.9591614463709665    0.5436683205222320    0.7047369577364244 Bi
   0.1258281130376332    0.7103349871888989    0.7047369577364244 Bi
   0.2924947797042998    0.8770016538555655    0.7047369577364244 Bi
   0.8480503352598554    0.7658905427444543    0.7047369577364244 Bi
   0.0147170019265220    0.9325572094111211    0.7047369577364244 Bi
   0.4598412291105564    0.0399022511240779    0.5688586317166681 Bi
   0.6265078957772228    0.2065689177907445    0.5688586317166681 Bi
   0.1820634513327786    0.0954578066796335    0.5688586317166681 Bi
   0.3487301179994454    0.2621244733463001    0.5688586317166681 Bi
   0.5153967846661119    0.4287911400129666    0.5688586317166681 Bi
   0.6820634513327786    0.5954578066796334    0.5688586317166681 Bi
   0.7376190068883343    0.9843466955685223    0.5688586317166681 Bi
   0.9042856735550008    0.1510133622351889    0.5688586317166681 Bi
   0.0709523402216676    0.3176800289018556    0.5688586317166681 Bi
   0.2376190068883342    0.4843466955685222    0.5688586317166681 Bi
   0.4042856735550008    0.6510133622351890    0.5688586317166681 Bi
   0.5709523402216674    0.8176800289018556    0.5688586317166681 Bi
   0.7931745624438897    0.3732355844574111    0.5688586317166681 Bi
   0.9598412291105565    0.5399022511240780    0.5688586317166681 Bi
   0.1265078957772232    0.7065689177907445    0.5688586317166681 Bi
   0.2931745624438897    0.8732355844574111    0.5688586317166681 Bi
   0.8487301179994453    0.7621244733463001    0.5688586317166681 Bi
   0.0153967846661119    0.9287911400129668    0.5688586317166681 Bi
   0.7575028578949760    0.1142187995618900    0.4795310425214355 Bi
   0.9241695245616423    0.2808854662285568    0.4795310425214355 Bi
   0.4797250801171981    0.1697743551174456    0.4795310425214355 Bi
   0.6463917467838649    0.3364410217841123    0.4795310425214355 Bi
   0.8130584134505314    0.5031076884507789    0.4795310425214355 Bi
   0.9797250801171981    0.6697743551174455    0.4795310425214355 Bi
   0.0352806356727537    0.0586632440063344    0.4795310425214355 Bi
   0.2019473023394203    0.2253299106730011    0.4795310425214355 Bi
   0.3686139690060870    0.3919965773396678    0.4795310425214355 Bi
   0.5352806356727537    0.5586632440063345    0.4795310425214355 Bi
   0.7019473023394203    0.7253299106730011    0.4795310425214355 Bi
   0.8686139690060868    0.8919965773396681    0.4795310425214355 Bi
   0.0908361912283092    0.4475521328952232    0.4795310425214355 Bi
   0.2575028578949758    0.6142187995618901    0.4795310425214355 Bi
   0.4241695245616425    0.7808854662285567    0.4795310425214355 Bi
   0.5908361912283090    0.9475521328952233    0.4795310425214355 Bi
   0.1463917467838647    0.8364410217841123    0.4795310425214355 Bi
   0.3130584134505314    0.0031076884507789    0.4795310425214355 Bi
   0.0047071873328457    0.9098017686732708    0.1686817922364797 Se
   0.0047071873328457    0.1098017686732707    0.1686817922364797 Se
   0.0047071873328458    0.3098017686732706    0.1686817922364797 Se
   0.0047071873328457    0.5098017686732705    0.1686817922364797 Se
   0.0047071873328459    0.7098017686732706    0.1686817922364797 Se
   0.2047071873328456    0.9898017686732707    0.1686817922364797 Se
   0.2047071873328458    0.1898017686732707    0.1686817922364797 Se
   0.2047071873328457    0.3898017686732706    0.1686817922364797 Se
   0.2047071873328458    0.5898017686732706    0.1686817922364797 Se
   0.2047071873328457    0.7898017686732707    0.1686817922364797 Se
   0.4047071873328456    0.0698017686732707    0.1686817922364797 Se
   0.4047071873328457    0.2698017686732707    0.1686817922364797 Se
   0.4047071873328458    0.4698017686732707    0.1686817922364797 Se
   0.4047071873328458    0.6698017686732707    0.1686817922364797 Se
   0.4047071873328459    0.8698017686732706    0.1686817922364797 Se
   0.6047071873328459    0.9498017686732707    0.1686817922364797 Se
   0.6047071873328457    0.1498017686732706    0.1686817922364797 Se
   0.6047071873328459    0.3498017686732706    0.1686817922364797 Se
   0.6047071873328459    0.5498017686732708    0.1686817922364797 Se
   0.6047071873328457    0.7498017686732708    0.1686817922364797 Se
   0.8047071873328459    0.0298017686732707    0.1686817922364797 Se
   0.8047071873328459    0.2298017686732707    0.1686817922364797 Se
   0.8047071873328456    0.4298017686732708    0.1686817922364797 Se
   0.8047071873328456    0.6298017686732708    0.1686817922364797 Se
   0.8047071873328460    0.8298017686732709    0.1686817922364797 Se
   0.9373740910061147    0.0164883911382862    0.3069115334886652 Se
   0.9373740910061147    0.2164883911382862    0.3069115334886652 Se
   0.9373740910061147    0.4164883911382863    0.3069115334886652 Se
   0.9373740910061148    0.6164883911382862    0.3069115334886652 Se
   0.9373740910061148    0.8164883911382862    0.3069115334886653 Se
   0.1373740910061146    0.0964883911382863    0.3069115334886652 Se
   0.1373740910061146    0.2964883911382863    0.3069115334886652 Se
   0.1373740910061146    0.4964883911382861    0.3069115334886652 Se
   0.1373740910061147    0.6964883911382863    0.3069115334886653 Se
   0.1373740910061148    0.8964883911382863    0.3069115334886653 Se
   0.3373740910061146    0.1764883911382863    0.3069115334886652 Se
   0.3373740910061147    0.3764883911382862    0.3069115334886652 Se
   0.3373740910061147    0.5764883911382863    0.3069115334886653 Se
   0.3373740910061149    0.7764883911382862    0.3069115334886653 Se
   0.3373740910061148    0.9764883911382861    0.3069115334886652 Se
   0.5373740910061146    0.0564883911382862    0.3069115334886652 Se
   0.5373740910061147    0.2564883911382861    0.3069115334886653 Se
   0.5373740910061147    0.4564883911382862    0.3069115334886653 Se
   0.5373740910061149    0.6564883911382862    0.3069115334886653 Se
   0.5373740910061148    0.8564883911382862    0.3069115334886652 Se
   0.7373740910061147    0.1364883911382862    0.3069115334886653 Se
   0.7373740910061146    0.3364883911382862    0.3069115334886653 Se
   0.7373740910061148    0.5364883911382862    0.3069115334886652 Se
   0.7373740910061147    0.7364883911382862    0.3069115334886652 Se
   0.7373740910061147    0.9364883911382863    0.3069115334886652 Se
   0.0046384187467608    0.9098263934707334    0.2443510399711944 Se
   0.0046384187467607    0.1098263934707332    0.2443510399711944 Se
   0.0046384187467608    0.3098263934707332    0.2443510399711944 Se
   0.0046384187467608    0.5098263934707333    0.2443510399711944 Se
   0.0046384187467609    0.7098263934707332    0.2443510399711944 Se
   0.2046384187467607    0.9898263934707332    0.2443510399711944 Se
   0.2046384187467608    0.1898263934707333    0.2443510399711944 Se
   0.2046384187467608    0.3898263934707332    0.2443510399711944 Se
   0.2046384187467608    0.5898263934707333    0.2443510399711944 Se
   0.2046384187467610    0.7898263934707331    0.2443510399711944 Se
   0.4046384187467607    0.0698263934707332    0.2443510399711944 Se
   0.4046384187467608    0.2698263934707332    0.2443510399711944 Se
   0.4046384187467609    0.4698263934707333    0.2443510399711944 Se
   0.4046384187467609    0.6698263934707333    0.2443510399711944 Se
   0.4046384187467607    0.8698263934707332    0.2443510399711944 Se
   0.6046384187467607    0.9498263934707333    0.2443510399711944 Se
   0.6046384187467609    0.1498263934707333    0.2443510399711944 Se
   0.6046384187467609    0.3498263934707333    0.2443510399711944 Se
   0.6046384187467609    0.5498263934707333    0.2443510399711944 Se
   0.6046384187467608    0.7498263934707331    0.2443510399711944 Se
   0.8046384187467608    0.0298263934707332    0.2443510399711944 Se
   0.8046384187467608    0.2298263934707334    0.2443510399711944 Se
   0.8046384187467609    0.4298263934707333    0.2443510399711944 Se
   0.8046384187467607    0.6298263934707332    0.2443510399711944 Se
   0.8046384187467610    0.8298263934707332    0.2443510399711944 Se
   0.9373108783685247    0.0165218270816288    0.3825808312104175 Se
   0.9373108783685247    0.2165218270816288    0.3825808312104175 Se
   0.9373108783685248    0.4165218270816288    0.3825808312104175 Se
   0.9373108783685248    0.6165218270816289    0.3825808312104175 Se
   0.9373108783685249    0.8165218270816289    0.3825808312104175 Se
   0.1373108783685247    0.0965218270816288    0.3825808312104175 Se
   0.1373108783685247    0.2965218270816288    0.3825808312104175 Se
   0.1373108783685247    0.4965218270816288    0.3825808312104175 Se
   0.1373108783685247    0.6965218270816289    0.3825808312104175 Se
   0.1373108783685248    0.8965218270816288    0.3825808312104175 Se
   0.3373108783685246    0.1765218270816288    0.3825808312104175 Se
   0.3373108783685247    0.3765218270816288    0.3825808312104175 Se
   0.3373108783685247    0.5765218270816289    0.3825808312104175 Se
   0.3373108783685247    0.7765218270816288    0.3825808312104175 Se
   0.3373108783685245    0.9765218270816286    0.3825808312104175 Se
   0.5373108783685245    0.0565218270816288    0.3825808312104175 Se
   0.5373108783685250    0.2565218270816287    0.3825808312104175 Se
   0.5373108783685249    0.4565218270816288    0.3825808312104175 Se
   0.5373108783685249    0.6565218270816288    0.3825808312104175 Se
   0.5373108783685246    0.8565218270816287    0.3825808312104174 Se
   0.7373108783685248    0.1365218270816288    0.3825808312104175 Se
   0.7373108783685246    0.3365218270816288    0.3825808312104175 Se
   0.7373108783685248    0.5365218270816289    0.3825808312104174 Se
   0.7373108783685246    0.7365218270816288    0.3825808312104174 Se
   0.7373108783685247    0.9365218270816288    0.3825808312104175 Se
   0.4561925153761990    0.0443990319070775    0.8313182077635203 Se
   0.6228591820428654    0.2110656985737441    0.8313182077635203 Se
   0.1784147375984211    0.0999545874626331    0.8313182077635203 Se
   0.3450814042650879    0.2666212541292998    0.8313182077635203 Se
   0.5117480709317545    0.4332879207959663    0.8313182077635203 Se
   0.6784147375984210    0.5999545874626331    0.8313182077635203 Se
   0.7339702931539767    0.9888434763515219    0.8313182077635203 Se
   0.9006369598206433    0.1555101430181886    0.8313182077635203 Se
   0.0673036264873100    0.3221768096848553    0.8313182077635203 Se
   0.2339702931539766    0.4888434763515219    0.8313182077635203 Se
   0.4006369598206434    0.6555101430181886    0.8313182077635203 Se
   0.5673036264873097    0.8221768096848553    0.8313182077635203 Se
   0.7895258487095324    0.3777323652404108    0.8313182077635203 Se
   0.9561925153761989    0.5443990319070775    0.8313182077635203 Se
   0.1228591820428655    0.7110656985737441    0.8313182077635203 Se
   0.2895258487095321    0.8777323652404109    0.8313182077635203 Se
   0.8450814042650878    0.7666212541292995    0.8313182077635203 Se
   0.0117480709317544    0.9332879207959665    0.8313182077635203 Se
   0.7549178990798647    0.1187246826784309    0.7495056388254160 Se
   0.9215845657465312    0.2853913493450976    0.7495056388254160 Se
   0.4771401213020868    0.1742802382339866    0.7495056388254160 Se
   0.6438067879687540    0.3409469049006532    0.7495056388254160 Se
   0.8104734546354204    0.5076135715673199    0.7495056388254160 Se
   0.9771401213020871    0.6742802382339864    0.7495056388254160 Se
   0.0326956768576427    0.0631691271228754    0.7495056388254160 Se
   0.1993623435243093    0.2298357937895420    0.7495056388254160 Se
   0.3660290101909760    0.3965024604562086    0.7495056388254160 Se
   0.5326956768576425    0.5631691271228755    0.7495056388254160 Se
   0.6993623435243094    0.7298357937895420    0.7495056388254160 Se
   0.8660290101909759    0.8965024604562088    0.7495056388254160 Se
   0.0882512324131982    0.4520580160117643    0.7495056388254160 Se
   0.2549178990798648    0.6187246826784311    0.7495056388254160 Se
   0.4215845657465316    0.7853913493450975    0.7495056388254160 Se
   0.5882512324131982    0.9520580160117643    0.7495056388254160 Se
   0.1438067879687537    0.8409469049006530    0.7495056388254160 Se
   0.3104734546354204    0.0076135715673199    0.7495056388254160 Se
   0.6064175168934320    0.0810699589306243    0.6677845033197066 Se
   0.7730841835600984    0.2477366255972909    0.6677845033197066 Se
   0.3286397391156541    0.1366255144861799    0.6677845033197066 Se
   0.4953064057823210    0.3032921811528466    0.6677845033197066 Se
   0.6619730724489875    0.4699588478195132    0.6677845033197066 Se
   0.8286397391156540    0.6366255144861799    0.6677845033197066 Se
   0.8841952946712097    0.0255144033750688    0.6677845033197066 Se
   0.0508619613378764    0.1921810700417354    0.6677845033197066 Se
   0.2175286280045430    0.3588477367084021    0.6677845033197066 Se
   0.3841952946712097    0.5255144033750689    0.6677845033197066 Se
   0.5508619613378762    0.6921810700417353    0.6677845033197066 Se
   0.7175286280045430    0.8588477367084021    0.6677845033197066 Se
   0.9397508502267652    0.4144032922639576    0.6677845033197066 Se
   0.1064175168934319    0.5810699589306244    0.6677845033197066 Se
   0.2730841835600984    0.7477366255972909    0.6677845033197066 Se
   0.4397508502267652    0.9144032922639577    0.6677845033197066 Se
   0.9953064057823208    0.8032921811528465    0.6677845033197066 Se
   0.1619730724489874    0.9699588478195132    0.6677845033197066 Se
   0.7574740078092357    0.1144494701711143    0.6055580957863086 Se
   0.9241406744759023    0.2811161368377808    0.6055580957863086 Se
   0.4796962300314579    0.1700050257266700    0.6055580957863086 Se
   0.6463628966981246    0.3366716923933365    0.6055580957863086 Se
   0.8130295633647913    0.5033383590600030    0.6055580957863086 Se
   0.9796962300314578    0.6700050257266698    0.6055580957863086 Se
   0.0352517855870135    0.0588939146155587    0.6055580957863086 Se
   0.2019184522536801    0.2255605812822255    0.6055580957863086 Se
   0.3685851189203466    0.3922272479488919    0.6055580957863086 Se
   0.5352517855870135    0.5588939146155588    0.6055580957863086 Se
   0.7019184522536803    0.7255605812822253    0.6055580957863086 Se
   0.8685851189203467    0.8922272479488917    0.6055580957863087 Se
   0.0908073411425690    0.4477828035044475    0.6055580957863086 Se
   0.2574740078092357    0.6144494701711144    0.6055580957863086 Se
   0.4241406744759021    0.7811161368377809    0.6055580957863086 Se
   0.5908073411425691    0.9477828035044474    0.6055580957863086 Se
   0.1463628966981245    0.8366716923933365    0.6055580957863086 Se
   0.3130295633647910    0.0033383590600030    0.6055580957863086 Se
   0.6084646186741850    0.0766780259872918    0.5241890951556732 Se
   0.7751312853408515    0.2433446926539585    0.5241890951556732 Se
   0.3306868408964071    0.1322335815428473    0.5241890951556732 Se
   0.4973535075630742    0.2989002482095140    0.5241890951556732 Se
   0.6640201742297402    0.4655669148761806    0.5241890951556732 Se
   0.8306868408964071    0.6322335815428474    0.5241890951556732 Se
   0.8862423964519628    0.0211224704317362    0.5241890951556732 Se
   0.0529090631186295    0.1877891370984028    0.5241890951556732 Se
   0.2195757297852961    0.3544558037650696    0.5241890951556732 Se
   0.3862423964519627    0.5211224704317361    0.5241890951556732 Se
   0.5529090631186295    0.6877891370984028    0.5241890951556732 Se
   0.7195757297852959    0.8544558037650698    0.5241890951556732 Se
   0.9417979520075184    0.4100113593206250    0.5241890951556732 Se
   0.1084646186741850    0.5766780259872918    0.5241890951556732 Se
   0.2751312853408516    0.7433446926539584    0.5241890951556732 Se
   0.4417979520075183    0.9100113593206253    0.5241890951556732 Se
   0.9973535075630739    0.7989002482095140    0.5241890951556732 Se
   0.1640201742297405    0.9655669148761808    0.5241890951556732 Se
   0.4593824752633389    0.0397554061457914    0.4427015086099986 Se
   0.6260491419300053    0.2064220728124581    0.4427015086099986 Se
   0.1816046974855608    0.0953109617013470    0.4427015086099986 Se
   0.3482713641522276    0.2619776283680136    0.4427015086099986 Se
   0.5149380308188942    0.4286442950346802    0.4427015086099986 Se
   0.6816046974855609    0.5953109617013470    0.4427015086099986 Se
   0.7371602530411165    0.9841998505902358    0.4427015086099986 Se
   0.9038269197077832    0.1508665172569026    0.4427015086099986 Se
   0.0704935863744498    0.3175331839235692    0.4427015086099986 Se
   0.2371602530411164    0.4841998505902360    0.4427015086099986 Se
   0.4038269197077832    0.6508665172569026    0.4427015086099986 Se
   0.5704935863744496    0.8175331839235691    0.4427015086099986 Se
   0.7927158085966719    0.3730887394791246    0.4427015086099986 Se
   0.9593824752633386    0.5397554061457913    0.4427015086099986 Se
   0.1260491419300053    0.7064220728124582    0.4427015086099986 Se
   0.2927158085966718    0.8730887394791246    0.4427015086099986 Se
   0.8482713641522275    0.7619776283680135    0.4427015086099986 Se
   0.0149380308188941    0.9286442950346803    0.4427015086099986 Se
